%%MatrixMarket matrix coordinate real general
% synthetic 1D full-weighting restriction; endpoint weights are not renormalized
1015 2029 3043
1 1 0.5
1 2 0.25
2 2 0.25
2 3 0.5
2 4 0.25
3 4 0.25
3 5 0.5
3 6 0.25
4 6 0.25
4 7 0.5
4 8 0.25
5 8 0.25
5 9 0.5
5 10 0.25
6 10 0.25
6 11 0.5
6 12 0.25
7 12 0.25
7 13 0.5
7 14 0.25
8 14 0.25
8 15 0.5
8 16 0.25
9 16 0.25
9 17 0.5
9 18 0.25
10 18 0.25
10 19 0.5
10 20 0.25
11 20 0.25
11 21 0.5
11 22 0.25
12 22 0.25
12 23 0.5
12 24 0.25
13 24 0.25
13 25 0.5
13 26 0.25
14 26 0.25
14 27 0.5
14 28 0.25
15 28 0.25
15 29 0.5
15 30 0.25
16 30 0.25
16 31 0.5
16 32 0.25
17 32 0.25
17 33 0.5
17 34 0.25
18 34 0.25
18 35 0.5
18 36 0.25
19 36 0.25
19 37 0.5
19 38 0.25
20 38 0.25
20 39 0.5
20 40 0.25
21 40 0.25
21 41 0.5
21 42 0.25
22 42 0.25
22 43 0.5
22 44 0.25
23 44 0.25
23 45 0.5
23 46 0.25
24 46 0.25
24 47 0.5
24 48 0.25
25 48 0.25
25 49 0.5
25 50 0.25
26 50 0.25
26 51 0.5
26 52 0.25
27 52 0.25
27 53 0.5
27 54 0.25
28 54 0.25
28 55 0.5
28 56 0.25
29 56 0.25
29 57 0.5
29 58 0.25
30 58 0.25
30 59 0.5
30 60 0.25
31 60 0.25
31 61 0.5
31 62 0.25
32 62 0.25
32 63 0.5
32 64 0.25
33 64 0.25
33 65 0.5
33 66 0.25
34 66 0.25
34 67 0.5
34 68 0.25
35 68 0.25
35 69 0.5
35 70 0.25
36 70 0.25
36 71 0.5
36 72 0.25
37 72 0.25
37 73 0.5
37 74 0.25
38 74 0.25
38 75 0.5
38 76 0.25
39 76 0.25
39 77 0.5
39 78 0.25
40 78 0.25
40 79 0.5
40 80 0.25
41 80 0.25
41 81 0.5
41 82 0.25
42 82 0.25
42 83 0.5
42 84 0.25
43 84 0.25
43 85 0.5
43 86 0.25
44 86 0.25
44 87 0.5
44 88 0.25
45 88 0.25
45 89 0.5
45 90 0.25
46 90 0.25
46 91 0.5
46 92 0.25
47 92 0.25
47 93 0.5
47 94 0.25
48 94 0.25
48 95 0.5
48 96 0.25
49 96 0.25
49 97 0.5
49 98 0.25
50 98 0.25
50 99 0.5
50 100 0.25
51 100 0.25
51 101 0.5
51 102 0.25
52 102 0.25
52 103 0.5
52 104 0.25
53 104 0.25
53 105 0.5
53 106 0.25
54 106 0.25
54 107 0.5
54 108 0.25
55 108 0.25
55 109 0.5
55 110 0.25
56 110 0.25
56 111 0.5
56 112 0.25
57 112 0.25
57 113 0.5
57 114 0.25
58 114 0.25
58 115 0.5
58 116 0.25
59 116 0.25
59 117 0.5
59 118 0.25
60 118 0.25
60 119 0.5
60 120 0.25
61 120 0.25
61 121 0.5
61 122 0.25
62 122 0.25
62 123 0.5
62 124 0.25
63 124 0.25
63 125 0.5
63 126 0.25
64 126 0.25
64 127 0.5
64 128 0.25
65 128 0.25
65 129 0.5
65 130 0.25
66 130 0.25
66 131 0.5
66 132 0.25
67 132 0.25
67 133 0.5
67 134 0.25
68 134 0.25
68 135 0.5
68 136 0.25
69 136 0.25
69 137 0.5
69 138 0.25
70 138 0.25
70 139 0.5
70 140 0.25
71 140 0.25
71 141 0.5
71 142 0.25
72 142 0.25
72 143 0.5
72 144 0.25
73 144 0.25
73 145 0.5
73 146 0.25
74 146 0.25
74 147 0.5
74 148 0.25
75 148 0.25
75 149 0.5
75 150 0.25
76 150 0.25
76 151 0.5
76 152 0.25
77 152 0.25
77 153 0.5
77 154 0.25
78 154 0.25
78 155 0.5
78 156 0.25
79 156 0.25
79 157 0.5
79 158 0.25
80 158 0.25
80 159 0.5
80 160 0.25
81 160 0.25
81 161 0.5
81 162 0.25
82 162 0.25
82 163 0.5
82 164 0.25
83 164 0.25
83 165 0.5
83 166 0.25
84 166 0.25
84 167 0.5
84 168 0.25
85 168 0.25
85 169 0.5
85 170 0.25
86 170 0.25
86 171 0.5
86 172 0.25
87 172 0.25
87 173 0.5
87 174 0.25
88 174 0.25
88 175 0.5
88 176 0.25
89 176 0.25
89 177 0.5
89 178 0.25
90 178 0.25
90 179 0.5
90 180 0.25
91 180 0.25
91 181 0.5
91 182 0.25
92 182 0.25
92 183 0.5
92 184 0.25
93 184 0.25
93 185 0.5
93 186 0.25
94 186 0.25
94 187 0.5
94 188 0.25
95 188 0.25
95 189 0.5
95 190 0.25
96 190 0.25
96 191 0.5
96 192 0.25
97 192 0.25
97 193 0.5
97 194 0.25
98 194 0.25
98 195 0.5
98 196 0.25
99 196 0.25
99 197 0.5
99 198 0.25
100 198 0.25
100 199 0.5
100 200 0.25
101 200 0.25
101 201 0.5
101 202 0.25
102 202 0.25
102 203 0.5
102 204 0.25
103 204 0.25
103 205 0.5
103 206 0.25
104 206 0.25
104 207 0.5
104 208 0.25
105 208 0.25
105 209 0.5
105 210 0.25
106 210 0.25
106 211 0.5
106 212 0.25
107 212 0.25
107 213 0.5
107 214 0.25
108 214 0.25
108 215 0.5
108 216 0.25
109 216 0.25
109 217 0.5
109 218 0.25
110 218 0.25
110 219 0.5
110 220 0.25
111 220 0.25
111 221 0.5
111 222 0.25
112 222 0.25
112 223 0.5
112 224 0.25
113 224 0.25
113 225 0.5
113 226 0.25
114 226 0.25
114 227 0.5
114 228 0.25
115 228 0.25
115 229 0.5
115 230 0.25
116 230 0.25
116 231 0.5
116 232 0.25
117 232 0.25
117 233 0.5
117 234 0.25
118 234 0.25
118 235 0.5
118 236 0.25
119 236 0.25
119 237 0.5
119 238 0.25
120 238 0.25
120 239 0.5
120 240 0.25
121 240 0.25
121 241 0.5
121 242 0.25
122 242 0.25
122 243 0.5
122 244 0.25
123 244 0.25
123 245 0.5
123 246 0.25
124 246 0.25
124 247 0.5
124 248 0.25
125 248 0.25
125 249 0.5
125 250 0.25
126 250 0.25
126 251 0.5
126 252 0.25
127 252 0.25
127 253 0.5
127 254 0.25
128 254 0.25
128 255 0.5
128 256 0.25
129 256 0.25
129 257 0.5
129 258 0.25
130 258 0.25
130 259 0.5
130 260 0.25
131 260 0.25
131 261 0.5
131 262 0.25
132 262 0.25
132 263 0.5
132 264 0.25
133 264 0.25
133 265 0.5
133 266 0.25
134 266 0.25
134 267 0.5
134 268 0.25
135 268 0.25
135 269 0.5
135 270 0.25
136 270 0.25
136 271 0.5
136 272 0.25
137 272 0.25
137 273 0.5
137 274 0.25
138 274 0.25
138 275 0.5
138 276 0.25
139 276 0.25
139 277 0.5
139 278 0.25
140 278 0.25
140 279 0.5
140 280 0.25
141 280 0.25
141 281 0.5
141 282 0.25
142 282 0.25
142 283 0.5
142 284 0.25
143 284 0.25
143 285 0.5
143 286 0.25
144 286 0.25
144 287 0.5
144 288 0.25
145 288 0.25
145 289 0.5
145 290 0.25
146 290 0.25
146 291 0.5
146 292 0.25
147 292 0.25
147 293 0.5
147 294 0.25
148 294 0.25
148 295 0.5
148 296 0.25
149 296 0.25
149 297 0.5
149 298 0.25
150 298 0.25
150 299 0.5
150 300 0.25
151 300 0.25
151 301 0.5
151 302 0.25
152 302 0.25
152 303 0.5
152 304 0.25
153 304 0.25
153 305 0.5
153 306 0.25
154 306 0.25
154 307 0.5
154 308 0.25
155 308 0.25
155 309 0.5
155 310 0.25
156 310 0.25
156 311 0.5
156 312 0.25
157 312 0.25
157 313 0.5
157 314 0.25
158 314 0.25
158 315 0.5
158 316 0.25
159 316 0.25
159 317 0.5
159 318 0.25
160 318 0.25
160 319 0.5
160 320 0.25
161 320 0.25
161 321 0.5
161 322 0.25
162 322 0.25
162 323 0.5
162 324 0.25
163 324 0.25
163 325 0.5
163 326 0.25
164 326 0.25
164 327 0.5
164 328 0.25
165 328 0.25
165 329 0.5
165 330 0.25
166 330 0.25
166 331 0.5
166 332 0.25
167 332 0.25
167 333 0.5
167 334 0.25
168 334 0.25
168 335 0.5
168 336 0.25
169 336 0.25
169 337 0.5
169 338 0.25
170 338 0.25
170 339 0.5
170 340 0.25
171 340 0.25
171 341 0.5
171 342 0.25
172 342 0.25
172 343 0.5
172 344 0.25
173 344 0.25
173 345 0.5
173 346 0.25
174 346 0.25
174 347 0.5
174 348 0.25
175 348 0.25
175 349 0.5
175 350 0.25
176 350 0.25
176 351 0.5
176 352 0.25
177 352 0.25
177 353 0.5
177 354 0.25
178 354 0.25
178 355 0.5
178 356 0.25
179 356 0.25
179 357 0.5
179 358 0.25
180 358 0.25
180 359 0.5
180 360 0.25
181 360 0.25
181 361 0.5
181 362 0.25
182 362 0.25
182 363 0.5
182 364 0.25
183 364 0.25
183 365 0.5
183 366 0.25
184 366 0.25
184 367 0.5
184 368 0.25
185 368 0.25
185 369 0.5
185 370 0.25
186 370 0.25
186 371 0.5
186 372 0.25
187 372 0.25
187 373 0.5
187 374 0.25
188 374 0.25
188 375 0.5
188 376 0.25
189 376 0.25
189 377 0.5
189 378 0.25
190 378 0.25
190 379 0.5
190 380 0.25
191 380 0.25
191 381 0.5
191 382 0.25
192 382 0.25
192 383 0.5
192 384 0.25
193 384 0.25
193 385 0.5
193 386 0.25
194 386 0.25
194 387 0.5
194 388 0.25
195 388 0.25
195 389 0.5
195 390 0.25
196 390 0.25
196 391 0.5
196 392 0.25
197 392 0.25
197 393 0.5
197 394 0.25
198 394 0.25
198 395 0.5
198 396 0.25
199 396 0.25
199 397 0.5
199 398 0.25
200 398 0.25
200 399 0.5
200 400 0.25
201 400 0.25
201 401 0.5
201 402 0.25
202 402 0.25
202 403 0.5
202 404 0.25
203 404 0.25
203 405 0.5
203 406 0.25
204 406 0.25
204 407 0.5
204 408 0.25
205 408 0.25
205 409 0.5
205 410 0.25
206 410 0.25
206 411 0.5
206 412 0.25
207 412 0.25
207 413 0.5
207 414 0.25
208 414 0.25
208 415 0.5
208 416 0.25
209 416 0.25
209 417 0.5
209 418 0.25
210 418 0.25
210 419 0.5
210 420 0.25
211 420 0.25
211 421 0.5
211 422 0.25
212 422 0.25
212 423 0.5
212 424 0.25
213 424 0.25
213 425 0.5
213 426 0.25
214 426 0.25
214 427 0.5
214 428 0.25
215 428 0.25
215 429 0.5
215 430 0.25
216 430 0.25
216 431 0.5
216 432 0.25
217 432 0.25
217 433 0.5
217 434 0.25
218 434 0.25
218 435 0.5
218 436 0.25
219 436 0.25
219 437 0.5
219 438 0.25
220 438 0.25
220 439 0.5
220 440 0.25
221 440 0.25
221 441 0.5
221 442 0.25
222 442 0.25
222 443 0.5
222 444 0.25
223 444 0.25
223 445 0.5
223 446 0.25
224 446 0.25
224 447 0.5
224 448 0.25
225 448 0.25
225 449 0.5
225 450 0.25
226 450 0.25
226 451 0.5
226 452 0.25
227 452 0.25
227 453 0.5
227 454 0.25
228 454 0.25
228 455 0.5
228 456 0.25
229 456 0.25
229 457 0.5
229 458 0.25
230 458 0.25
230 459 0.5
230 460 0.25
231 460 0.25
231 461 0.5
231 462 0.25
232 462 0.25
232 463 0.5
232 464 0.25
233 464 0.25
233 465 0.5
233 466 0.25
234 466 0.25
234 467 0.5
234 468 0.25
235 468 0.25
235 469 0.5
235 470 0.25
236 470 0.25
236 471 0.5
236 472 0.25
237 472 0.25
237 473 0.5
237 474 0.25
238 474 0.25
238 475 0.5
238 476 0.25
239 476 0.25
239 477 0.5
239 478 0.25
240 478 0.25
240 479 0.5
240 480 0.25
241 480 0.25
241 481 0.5
241 482 0.25
242 482 0.25
242 483 0.5
242 484 0.25
243 484 0.25
243 485 0.5
243 486 0.25
244 486 0.25
244 487 0.5
244 488 0.25
245 488 0.25
245 489 0.5
245 490 0.25
246 490 0.25
246 491 0.5
246 492 0.25
247 492 0.25
247 493 0.5
247 494 0.25
248 494 0.25
248 495 0.5
248 496 0.25
249 496 0.25
249 497 0.5
249 498 0.25
250 498 0.25
250 499 0.5
250 500 0.25
251 500 0.25
251 501 0.5
251 502 0.25
252 502 0.25
252 503 0.5
252 504 0.25
253 504 0.25
253 505 0.5
253 506 0.25
254 506 0.25
254 507 0.5
254 508 0.25
255 508 0.25
255 509 0.5
255 510 0.25
256 510 0.25
256 511 0.5
256 512 0.25
257 512 0.25
257 513 0.5
257 514 0.25
258 514 0.25
258 515 0.5
258 516 0.25
259 516 0.25
259 517 0.5
259 518 0.25
260 518 0.25
260 519 0.5
260 520 0.25
261 520 0.25
261 521 0.5
261 522 0.25
262 522 0.25
262 523 0.5
262 524 0.25
263 524 0.25
263 525 0.5
263 526 0.25
264 526 0.25
264 527 0.5
264 528 0.25
265 528 0.25
265 529 0.5
265 530 0.25
266 530 0.25
266 531 0.5
266 532 0.25
267 532 0.25
267 533 0.5
267 534 0.25
268 534 0.25
268 535 0.5
268 536 0.25
269 536 0.25
269 537 0.5
269 538 0.25
270 538 0.25
270 539 0.5
270 540 0.25
271 540 0.25
271 541 0.5
271 542 0.25
272 542 0.25
272 543 0.5
272 544 0.25
273 544 0.25
273 545 0.5
273 546 0.25
274 546 0.25
274 547 0.5
274 548 0.25
275 548 0.25
275 549 0.5
275 550 0.25
276 550 0.25
276 551 0.5
276 552 0.25
277 552 0.25
277 553 0.5
277 554 0.25
278 554 0.25
278 555 0.5
278 556 0.25
279 556 0.25
279 557 0.5
279 558 0.25
280 558 0.25
280 559 0.5
280 560 0.25
281 560 0.25
281 561 0.5
281 562 0.25
282 562 0.25
282 563 0.5
282 564 0.25
283 564 0.25
283 565 0.5
283 566 0.25
284 566 0.25
284 567 0.5
284 568 0.25
285 568 0.25
285 569 0.5
285 570 0.25
286 570 0.25
286 571 0.5
286 572 0.25
287 572 0.25
287 573 0.5
287 574 0.25
288 574 0.25
288 575 0.5
288 576 0.25
289 576 0.25
289 577 0.5
289 578 0.25
290 578 0.25
290 579 0.5
290 580 0.25
291 580 0.25
291 581 0.5
291 582 0.25
292 582 0.25
292 583 0.5
292 584 0.25
293 584 0.25
293 585 0.5
293 586 0.25
294 586 0.25
294 587 0.5
294 588 0.25
295 588 0.25
295 589 0.5
295 590 0.25
296 590 0.25
296 591 0.5
296 592 0.25
297 592 0.25
297 593 0.5
297 594 0.25
298 594 0.25
298 595 0.5
298 596 0.25
299 596 0.25
299 597 0.5
299 598 0.25
300 598 0.25
300 599 0.5
300 600 0.25
301 600 0.25
301 601 0.5
301 602 0.25
302 602 0.25
302 603 0.5
302 604 0.25
303 604 0.25
303 605 0.5
303 606 0.25
304 606 0.25
304 607 0.5
304 608 0.25
305 608 0.25
305 609 0.5
305 610 0.25
306 610 0.25
306 611 0.5
306 612 0.25
307 612 0.25
307 613 0.5
307 614 0.25
308 614 0.25
308 615 0.5
308 616 0.25
309 616 0.25
309 617 0.5
309 618 0.25
310 618 0.25
310 619 0.5
310 620 0.25
311 620 0.25
311 621 0.5
311 622 0.25
312 622 0.25
312 623 0.5
312 624 0.25
313 624 0.25
313 625 0.5
313 626 0.25
314 626 0.25
314 627 0.5
314 628 0.25
315 628 0.25
315 629 0.5
315 630 0.25
316 630 0.25
316 631 0.5
316 632 0.25
317 632 0.25
317 633 0.5
317 634 0.25
318 634 0.25
318 635 0.5
318 636 0.25
319 636 0.25
319 637 0.5
319 638 0.25
320 638 0.25
320 639 0.5
320 640 0.25
321 640 0.25
321 641 0.5
321 642 0.25
322 642 0.25
322 643 0.5
322 644 0.25
323 644 0.25
323 645 0.5
323 646 0.25
324 646 0.25
324 647 0.5
324 648 0.25
325 648 0.25
325 649 0.5
325 650 0.25
326 650 0.25
326 651 0.5
326 652 0.25
327 652 0.25
327 653 0.5
327 654 0.25
328 654 0.25
328 655 0.5
328 656 0.25
329 656 0.25
329 657 0.5
329 658 0.25
330 658 0.25
330 659 0.5
330 660 0.25
331 660 0.25
331 661 0.5
331 662 0.25
332 662 0.25
332 663 0.5
332 664 0.25
333 664 0.25
333 665 0.5
333 666 0.25
334 666 0.25
334 667 0.5
334 668 0.25
335 668 0.25
335 669 0.5
335 670 0.25
336 670 0.25
336 671 0.5
336 672 0.25
337 672 0.25
337 673 0.5
337 674 0.25
338 674 0.25
338 675 0.5
338 676 0.25
339 676 0.25
339 677 0.5
339 678 0.25
340 678 0.25
340 679 0.5
340 680 0.25
341 680 0.25
341 681 0.5
341 682 0.25
342 682 0.25
342 683 0.5
342 684 0.25
343 684 0.25
343 685 0.5
343 686 0.25
344 686 0.25
344 687 0.5
344 688 0.25
345 688 0.25
345 689 0.5
345 690 0.25
346 690 0.25
346 691 0.5
346 692 0.25
347 692 0.25
347 693 0.5
347 694 0.25
348 694 0.25
348 695 0.5
348 696 0.25
349 696 0.25
349 697 0.5
349 698 0.25
350 698 0.25
350 699 0.5
350 700 0.25
351 700 0.25
351 701 0.5
351 702 0.25
352 702 0.25
352 703 0.5
352 704 0.25
353 704 0.25
353 705 0.5
353 706 0.25
354 706 0.25
354 707 0.5
354 708 0.25
355 708 0.25
355 709 0.5
355 710 0.25
356 710 0.25
356 711 0.5
356 712 0.25
357 712 0.25
357 713 0.5
357 714 0.25
358 714 0.25
358 715 0.5
358 716 0.25
359 716 0.25
359 717 0.5
359 718 0.25
360 718 0.25
360 719 0.5
360 720 0.25
361 720 0.25
361 721 0.5
361 722 0.25
362 722 0.25
362 723 0.5
362 724 0.25
363 724 0.25
363 725 0.5
363 726 0.25
364 726 0.25
364 727 0.5
364 728 0.25
365 728 0.25
365 729 0.5
365 730 0.25
366 730 0.25
366 731 0.5
366 732 0.25
367 732 0.25
367 733 0.5
367 734 0.25
368 734 0.25
368 735 0.5
368 736 0.25
369 736 0.25
369 737 0.5
369 738 0.25
370 738 0.25
370 739 0.5
370 740 0.25
371 740 0.25
371 741 0.5
371 742 0.25
372 742 0.25
372 743 0.5
372 744 0.25
373 744 0.25
373 745 0.5
373 746 0.25
374 746 0.25
374 747 0.5
374 748 0.25
375 748 0.25
375 749 0.5
375 750 0.25
376 750 0.25
376 751 0.5
376 752 0.25
377 752 0.25
377 753 0.5
377 754 0.25
378 754 0.25
378 755 0.5
378 756 0.25
379 756 0.25
379 757 0.5
379 758 0.25
380 758 0.25
380 759 0.5
380 760 0.25
381 760 0.25
381 761 0.5
381 762 0.25
382 762 0.25
382 763 0.5
382 764 0.25
383 764 0.25
383 765 0.5
383 766 0.25
384 766 0.25
384 767 0.5
384 768 0.25
385 768 0.25
385 769 0.5
385 770 0.25
386 770 0.25
386 771 0.5
386 772 0.25
387 772 0.25
387 773 0.5
387 774 0.25
388 774 0.25
388 775 0.5
388 776 0.25
389 776 0.25
389 777 0.5
389 778 0.25
390 778 0.25
390 779 0.5
390 780 0.25
391 780 0.25
391 781 0.5
391 782 0.25
392 782 0.25
392 783 0.5
392 784 0.25
393 784 0.25
393 785 0.5
393 786 0.25
394 786 0.25
394 787 0.5
394 788 0.25
395 788 0.25
395 789 0.5
395 790 0.25
396 790 0.25
396 791 0.5
396 792 0.25
397 792 0.25
397 793 0.5
397 794 0.25
398 794 0.25
398 795 0.5
398 796 0.25
399 796 0.25
399 797 0.5
399 798 0.25
400 798 0.25
400 799 0.5
400 800 0.25
401 800 0.25
401 801 0.5
401 802 0.25
402 802 0.25
402 803 0.5
402 804 0.25
403 804 0.25
403 805 0.5
403 806 0.25
404 806 0.25
404 807 0.5
404 808 0.25
405 808 0.25
405 809 0.5
405 810 0.25
406 810 0.25
406 811 0.5
406 812 0.25
407 812 0.25
407 813 0.5
407 814 0.25
408 814 0.25
408 815 0.5
408 816 0.25
409 816 0.25
409 817 0.5
409 818 0.25
410 818 0.25
410 819 0.5
410 820 0.25
411 820 0.25
411 821 0.5
411 822 0.25
412 822 0.25
412 823 0.5
412 824 0.25
413 824 0.25
413 825 0.5
413 826 0.25
414 826 0.25
414 827 0.5
414 828 0.25
415 828 0.25
415 829 0.5
415 830 0.25
416 830 0.25
416 831 0.5
416 832 0.25
417 832 0.25
417 833 0.5
417 834 0.25
418 834 0.25
418 835 0.5
418 836 0.25
419 836 0.25
419 837 0.5
419 838 0.25
420 838 0.25
420 839 0.5
420 840 0.25
421 840 0.25
421 841 0.5
421 842 0.25
422 842 0.25
422 843 0.5
422 844 0.25
423 844 0.25
423 845 0.5
423 846 0.25
424 846 0.25
424 847 0.5
424 848 0.25
425 848 0.25
425 849 0.5
425 850 0.25
426 850 0.25
426 851 0.5
426 852 0.25
427 852 0.25
427 853 0.5
427 854 0.25
428 854 0.25
428 855 0.5
428 856 0.25
429 856 0.25
429 857 0.5
429 858 0.25
430 858 0.25
430 859 0.5
430 860 0.25
431 860 0.25
431 861 0.5
431 862 0.25
432 862 0.25
432 863 0.5
432 864 0.25
433 864 0.25
433 865 0.5
433 866 0.25
434 866 0.25
434 867 0.5
434 868 0.25
435 868 0.25
435 869 0.5
435 870 0.25
436 870 0.25
436 871 0.5
436 872 0.25
437 872 0.25
437 873 0.5
437 874 0.25
438 874 0.25
438 875 0.5
438 876 0.25
439 876 0.25
439 877 0.5
439 878 0.25
440 878 0.25
440 879 0.5
440 880 0.25
441 880 0.25
441 881 0.5
441 882 0.25
442 882 0.25
442 883 0.5
442 884 0.25
443 884 0.25
443 885 0.5
443 886 0.25
444 886 0.25
444 887 0.5
444 888 0.25
445 888 0.25
445 889 0.5
445 890 0.25
446 890 0.25
446 891 0.5
446 892 0.25
447 892 0.25
447 893 0.5
447 894 0.25
448 894 0.25
448 895 0.5
448 896 0.25
449 896 0.25
449 897 0.5
449 898 0.25
450 898 0.25
450 899 0.5
450 900 0.25
451 900 0.25
451 901 0.5
451 902 0.25
452 902 0.25
452 903 0.5
452 904 0.25
453 904 0.25
453 905 0.5
453 906 0.25
454 906 0.25
454 907 0.5
454 908 0.25
455 908 0.25
455 909 0.5
455 910 0.25
456 910 0.25
456 911 0.5
456 912 0.25
457 912 0.25
457 913 0.5
457 914 0.25
458 914 0.25
458 915 0.5
458 916 0.25
459 916 0.25
459 917 0.5
459 918 0.25
460 918 0.25
460 919 0.5
460 920 0.25
461 920 0.25
461 921 0.5
461 922 0.25
462 922 0.25
462 923 0.5
462 924 0.25
463 924 0.25
463 925 0.5
463 926 0.25
464 926 0.25
464 927 0.5
464 928 0.25
465 928 0.25
465 929 0.5
465 930 0.25
466 930 0.25
466 931 0.5
466 932 0.25
467 932 0.25
467 933 0.5
467 934 0.25
468 934 0.25
468 935 0.5
468 936 0.25
469 936 0.25
469 937 0.5
469 938 0.25
470 938 0.25
470 939 0.5
470 940 0.25
471 940 0.25
471 941 0.5
471 942 0.25
472 942 0.25
472 943 0.5
472 944 0.25
473 944 0.25
473 945 0.5
473 946 0.25
474 946 0.25
474 947 0.5
474 948 0.25
475 948 0.25
475 949 0.5
475 950 0.25
476 950 0.25
476 951 0.5
476 952 0.25
477 952 0.25
477 953 0.5
477 954 0.25
478 954 0.25
478 955 0.5
478 956 0.25
479 956 0.25
479 957 0.5
479 958 0.25
480 958 0.25
480 959 0.5
480 960 0.25
481 960 0.25
481 961 0.5
481 962 0.25
482 962 0.25
482 963 0.5
482 964 0.25
483 964 0.25
483 965 0.5
483 966 0.25
484 966 0.25
484 967 0.5
484 968 0.25
485 968 0.25
485 969 0.5
485 970 0.25
486 970 0.25
486 971 0.5
486 972 0.25
487 972 0.25
487 973 0.5
487 974 0.25
488 974 0.25
488 975 0.5
488 976 0.25
489 976 0.25
489 977 0.5
489 978 0.25
490 978 0.25
490 979 0.5
490 980 0.25
491 980 0.25
491 981 0.5
491 982 0.25
492 982 0.25
492 983 0.5
492 984 0.25
493 984 0.25
493 985 0.5
493 986 0.25
494 986 0.25
494 987 0.5
494 988 0.25
495 988 0.25
495 989 0.5
495 990 0.25
496 990 0.25
496 991 0.5
496 992 0.25
497 992 0.25
497 993 0.5
497 994 0.25
498 994 0.25
498 995 0.5
498 996 0.25
499 996 0.25
499 997 0.5
499 998 0.25
500 998 0.25
500 999 0.5
500 1000 0.25
501 1000 0.25
501 1001 0.5
501 1002 0.25
502 1002 0.25
502 1003 0.5
502 1004 0.25
503 1004 0.25
503 1005 0.5
503 1006 0.25
504 1006 0.25
504 1007 0.5
504 1008 0.25
505 1008 0.25
505 1009 0.5
505 1010 0.25
506 1010 0.25
506 1011 0.5
506 1012 0.25
507 1012 0.25
507 1013 0.5
507 1014 0.25
508 1014 0.25
508 1015 0.5
508 1016 0.25
509 1016 0.25
509 1017 0.5
509 1018 0.25
510 1018 0.25
510 1019 0.5
510 1020 0.25
511 1020 0.25
511 1021 0.5
511 1022 0.25
512 1022 0.25
512 1023 0.5
512 1024 0.25
513 1024 0.25
513 1025 0.5
513 1026 0.25
514 1026 0.25
514 1027 0.5
514 1028 0.25
515 1028 0.25
515 1029 0.5
515 1030 0.25
516 1030 0.25
516 1031 0.5
516 1032 0.25
517 1032 0.25
517 1033 0.5
517 1034 0.25
518 1034 0.25
518 1035 0.5
518 1036 0.25
519 1036 0.25
519 1037 0.5
519 1038 0.25
520 1038 0.25
520 1039 0.5
520 1040 0.25
521 1040 0.25
521 1041 0.5
521 1042 0.25
522 1042 0.25
522 1043 0.5
522 1044 0.25
523 1044 0.25
523 1045 0.5
523 1046 0.25
524 1046 0.25
524 1047 0.5
524 1048 0.25
525 1048 0.25
525 1049 0.5
525 1050 0.25
526 1050 0.25
526 1051 0.5
526 1052 0.25
527 1052 0.25
527 1053 0.5
527 1054 0.25
528 1054 0.25
528 1055 0.5
528 1056 0.25
529 1056 0.25
529 1057 0.5
529 1058 0.25
530 1058 0.25
530 1059 0.5
530 1060 0.25
531 1060 0.25
531 1061 0.5
531 1062 0.25
532 1062 0.25
532 1063 0.5
532 1064 0.25
533 1064 0.25
533 1065 0.5
533 1066 0.25
534 1066 0.25
534 1067 0.5
534 1068 0.25
535 1068 0.25
535 1069 0.5
535 1070 0.25
536 1070 0.25
536 1071 0.5
536 1072 0.25
537 1072 0.25
537 1073 0.5
537 1074 0.25
538 1074 0.25
538 1075 0.5
538 1076 0.25
539 1076 0.25
539 1077 0.5
539 1078 0.25
540 1078 0.25
540 1079 0.5
540 1080 0.25
541 1080 0.25
541 1081 0.5
541 1082 0.25
542 1082 0.25
542 1083 0.5
542 1084 0.25
543 1084 0.25
543 1085 0.5
543 1086 0.25
544 1086 0.25
544 1087 0.5
544 1088 0.25
545 1088 0.25
545 1089 0.5
545 1090 0.25
546 1090 0.25
546 1091 0.5
546 1092 0.25
547 1092 0.25
547 1093 0.5
547 1094 0.25
548 1094 0.25
548 1095 0.5
548 1096 0.25
549 1096 0.25
549 1097 0.5
549 1098 0.25
550 1098 0.25
550 1099 0.5
550 1100 0.25
551 1100 0.25
551 1101 0.5
551 1102 0.25
552 1102 0.25
552 1103 0.5
552 1104 0.25
553 1104 0.25
553 1105 0.5
553 1106 0.25
554 1106 0.25
554 1107 0.5
554 1108 0.25
555 1108 0.25
555 1109 0.5
555 1110 0.25
556 1110 0.25
556 1111 0.5
556 1112 0.25
557 1112 0.25
557 1113 0.5
557 1114 0.25
558 1114 0.25
558 1115 0.5
558 1116 0.25
559 1116 0.25
559 1117 0.5
559 1118 0.25
560 1118 0.25
560 1119 0.5
560 1120 0.25
561 1120 0.25
561 1121 0.5
561 1122 0.25
562 1122 0.25
562 1123 0.5
562 1124 0.25
563 1124 0.25
563 1125 0.5
563 1126 0.25
564 1126 0.25
564 1127 0.5
564 1128 0.25
565 1128 0.25
565 1129 0.5
565 1130 0.25
566 1130 0.25
566 1131 0.5
566 1132 0.25
567 1132 0.25
567 1133 0.5
567 1134 0.25
568 1134 0.25
568 1135 0.5
568 1136 0.25
569 1136 0.25
569 1137 0.5
569 1138 0.25
570 1138 0.25
570 1139 0.5
570 1140 0.25
571 1140 0.25
571 1141 0.5
571 1142 0.25
572 1142 0.25
572 1143 0.5
572 1144 0.25
573 1144 0.25
573 1145 0.5
573 1146 0.25
574 1146 0.25
574 1147 0.5
574 1148 0.25
575 1148 0.25
575 1149 0.5
575 1150 0.25
576 1150 0.25
576 1151 0.5
576 1152 0.25
577 1152 0.25
577 1153 0.5
577 1154 0.25
578 1154 0.25
578 1155 0.5
578 1156 0.25
579 1156 0.25
579 1157 0.5
579 1158 0.25
580 1158 0.25
580 1159 0.5
580 1160 0.25
581 1160 0.25
581 1161 0.5
581 1162 0.25
582 1162 0.25
582 1163 0.5
582 1164 0.25
583 1164 0.25
583 1165 0.5
583 1166 0.25
584 1166 0.25
584 1167 0.5
584 1168 0.25
585 1168 0.25
585 1169 0.5
585 1170 0.25
586 1170 0.25
586 1171 0.5
586 1172 0.25
587 1172 0.25
587 1173 0.5
587 1174 0.25
588 1174 0.25
588 1175 0.5
588 1176 0.25
589 1176 0.25
589 1177 0.5
589 1178 0.25
590 1178 0.25
590 1179 0.5
590 1180 0.25
591 1180 0.25
591 1181 0.5
591 1182 0.25
592 1182 0.25
592 1183 0.5
592 1184 0.25
593 1184 0.25
593 1185 0.5
593 1186 0.25
594 1186 0.25
594 1187 0.5
594 1188 0.25
595 1188 0.25
595 1189 0.5
595 1190 0.25
596 1190 0.25
596 1191 0.5
596 1192 0.25
597 1192 0.25
597 1193 0.5
597 1194 0.25
598 1194 0.25
598 1195 0.5
598 1196 0.25
599 1196 0.25
599 1197 0.5
599 1198 0.25
600 1198 0.25
600 1199 0.5
600 1200 0.25
601 1200 0.25
601 1201 0.5
601 1202 0.25
602 1202 0.25
602 1203 0.5
602 1204 0.25
603 1204 0.25
603 1205 0.5
603 1206 0.25
604 1206 0.25
604 1207 0.5
604 1208 0.25
605 1208 0.25
605 1209 0.5
605 1210 0.25
606 1210 0.25
606 1211 0.5
606 1212 0.25
607 1212 0.25
607 1213 0.5
607 1214 0.25
608 1214 0.25
608 1215 0.5
608 1216 0.25
609 1216 0.25
609 1217 0.5
609 1218 0.25
610 1218 0.25
610 1219 0.5
610 1220 0.25
611 1220 0.25
611 1221 0.5
611 1222 0.25
612 1222 0.25
612 1223 0.5
612 1224 0.25
613 1224 0.25
613 1225 0.5
613 1226 0.25
614 1226 0.25
614 1227 0.5
614 1228 0.25
615 1228 0.25
615 1229 0.5
615 1230 0.25
616 1230 0.25
616 1231 0.5
616 1232 0.25
617 1232 0.25
617 1233 0.5
617 1234 0.25
618 1234 0.25
618 1235 0.5
618 1236 0.25
619 1236 0.25
619 1237 0.5
619 1238 0.25
620 1238 0.25
620 1239 0.5
620 1240 0.25
621 1240 0.25
621 1241 0.5
621 1242 0.25
622 1242 0.25
622 1243 0.5
622 1244 0.25
623 1244 0.25
623 1245 0.5
623 1246 0.25
624 1246 0.25
624 1247 0.5
624 1248 0.25
625 1248 0.25
625 1249 0.5
625 1250 0.25
626 1250 0.25
626 1251 0.5
626 1252 0.25
627 1252 0.25
627 1253 0.5
627 1254 0.25
628 1254 0.25
628 1255 0.5
628 1256 0.25
629 1256 0.25
629 1257 0.5
629 1258 0.25
630 1258 0.25
630 1259 0.5
630 1260 0.25
631 1260 0.25
631 1261 0.5
631 1262 0.25
632 1262 0.25
632 1263 0.5
632 1264 0.25
633 1264 0.25
633 1265 0.5
633 1266 0.25
634 1266 0.25
634 1267 0.5
634 1268 0.25
635 1268 0.25
635 1269 0.5
635 1270 0.25
636 1270 0.25
636 1271 0.5
636 1272 0.25
637 1272 0.25
637 1273 0.5
637 1274 0.25
638 1274 0.25
638 1275 0.5
638 1276 0.25
639 1276 0.25
639 1277 0.5
639 1278 0.25
640 1278 0.25
640 1279 0.5
640 1280 0.25
641 1280 0.25
641 1281 0.5
641 1282 0.25
642 1282 0.25
642 1283 0.5
642 1284 0.25
643 1284 0.25
643 1285 0.5
643 1286 0.25
644 1286 0.25
644 1287 0.5
644 1288 0.25
645 1288 0.25
645 1289 0.5
645 1290 0.25
646 1290 0.25
646 1291 0.5
646 1292 0.25
647 1292 0.25
647 1293 0.5
647 1294 0.25
648 1294 0.25
648 1295 0.5
648 1296 0.25
649 1296 0.25
649 1297 0.5
649 1298 0.25
650 1298 0.25
650 1299 0.5
650 1300 0.25
651 1300 0.25
651 1301 0.5
651 1302 0.25
652 1302 0.25
652 1303 0.5
652 1304 0.25
653 1304 0.25
653 1305 0.5
653 1306 0.25
654 1306 0.25
654 1307 0.5
654 1308 0.25
655 1308 0.25
655 1309 0.5
655 1310 0.25
656 1310 0.25
656 1311 0.5
656 1312 0.25
657 1312 0.25
657 1313 0.5
657 1314 0.25
658 1314 0.25
658 1315 0.5
658 1316 0.25
659 1316 0.25
659 1317 0.5
659 1318 0.25
660 1318 0.25
660 1319 0.5
660 1320 0.25
661 1320 0.25
661 1321 0.5
661 1322 0.25
662 1322 0.25
662 1323 0.5
662 1324 0.25
663 1324 0.25
663 1325 0.5
663 1326 0.25
664 1326 0.25
664 1327 0.5
664 1328 0.25
665 1328 0.25
665 1329 0.5
665 1330 0.25
666 1330 0.25
666 1331 0.5
666 1332 0.25
667 1332 0.25
667 1333 0.5
667 1334 0.25
668 1334 0.25
668 1335 0.5
668 1336 0.25
669 1336 0.25
669 1337 0.5
669 1338 0.25
670 1338 0.25
670 1339 0.5
670 1340 0.25
671 1340 0.25
671 1341 0.5
671 1342 0.25
672 1342 0.25
672 1343 0.5
672 1344 0.25
673 1344 0.25
673 1345 0.5
673 1346 0.25
674 1346 0.25
674 1347 0.5
674 1348 0.25
675 1348 0.25
675 1349 0.5
675 1350 0.25
676 1350 0.25
676 1351 0.5
676 1352 0.25
677 1352 0.25
677 1353 0.5
677 1354 0.25
678 1354 0.25
678 1355 0.5
678 1356 0.25
679 1356 0.25
679 1357 0.5
679 1358 0.25
680 1358 0.25
680 1359 0.5
680 1360 0.25
681 1360 0.25
681 1361 0.5
681 1362 0.25
682 1362 0.25
682 1363 0.5
682 1364 0.25
683 1364 0.25
683 1365 0.5
683 1366 0.25
684 1366 0.25
684 1367 0.5
684 1368 0.25
685 1368 0.25
685 1369 0.5
685 1370 0.25
686 1370 0.25
686 1371 0.5
686 1372 0.25
687 1372 0.25
687 1373 0.5
687 1374 0.25
688 1374 0.25
688 1375 0.5
688 1376 0.25
689 1376 0.25
689 1377 0.5
689 1378 0.25
690 1378 0.25
690 1379 0.5
690 1380 0.25
691 1380 0.25
691 1381 0.5
691 1382 0.25
692 1382 0.25
692 1383 0.5
692 1384 0.25
693 1384 0.25
693 1385 0.5
693 1386 0.25
694 1386 0.25
694 1387 0.5
694 1388 0.25
695 1388 0.25
695 1389 0.5
695 1390 0.25
696 1390 0.25
696 1391 0.5
696 1392 0.25
697 1392 0.25
697 1393 0.5
697 1394 0.25
698 1394 0.25
698 1395 0.5
698 1396 0.25
699 1396 0.25
699 1397 0.5
699 1398 0.25
700 1398 0.25
700 1399 0.5
700 1400 0.25
701 1400 0.25
701 1401 0.5
701 1402 0.25
702 1402 0.25
702 1403 0.5
702 1404 0.25
703 1404 0.25
703 1405 0.5
703 1406 0.25
704 1406 0.25
704 1407 0.5
704 1408 0.25
705 1408 0.25
705 1409 0.5
705 1410 0.25
706 1410 0.25
706 1411 0.5
706 1412 0.25
707 1412 0.25
707 1413 0.5
707 1414 0.25
708 1414 0.25
708 1415 0.5
708 1416 0.25
709 1416 0.25
709 1417 0.5
709 1418 0.25
710 1418 0.25
710 1419 0.5
710 1420 0.25
711 1420 0.25
711 1421 0.5
711 1422 0.25
712 1422 0.25
712 1423 0.5
712 1424 0.25
713 1424 0.25
713 1425 0.5
713 1426 0.25
714 1426 0.25
714 1427 0.5
714 1428 0.25
715 1428 0.25
715 1429 0.5
715 1430 0.25
716 1430 0.25
716 1431 0.5
716 1432 0.25
717 1432 0.25
717 1433 0.5
717 1434 0.25
718 1434 0.25
718 1435 0.5
718 1436 0.25
719 1436 0.25
719 1437 0.5
719 1438 0.25
720 1438 0.25
720 1439 0.5
720 1440 0.25
721 1440 0.25
721 1441 0.5
721 1442 0.25
722 1442 0.25
722 1443 0.5
722 1444 0.25
723 1444 0.25
723 1445 0.5
723 1446 0.25
724 1446 0.25
724 1447 0.5
724 1448 0.25
725 1448 0.25
725 1449 0.5
725 1450 0.25
726 1450 0.25
726 1451 0.5
726 1452 0.25
727 1452 0.25
727 1453 0.5
727 1454 0.25
728 1454 0.25
728 1455 0.5
728 1456 0.25
729 1456 0.25
729 1457 0.5
729 1458 0.25
730 1458 0.25
730 1459 0.5
730 1460 0.25
731 1460 0.25
731 1461 0.5
731 1462 0.25
732 1462 0.25
732 1463 0.5
732 1464 0.25
733 1464 0.25
733 1465 0.5
733 1466 0.25
734 1466 0.25
734 1467 0.5
734 1468 0.25
735 1468 0.25
735 1469 0.5
735 1470 0.25
736 1470 0.25
736 1471 0.5
736 1472 0.25
737 1472 0.25
737 1473 0.5
737 1474 0.25
738 1474 0.25
738 1475 0.5
738 1476 0.25
739 1476 0.25
739 1477 0.5
739 1478 0.25
740 1478 0.25
740 1479 0.5
740 1480 0.25
741 1480 0.25
741 1481 0.5
741 1482 0.25
742 1482 0.25
742 1483 0.5
742 1484 0.25
743 1484 0.25
743 1485 0.5
743 1486 0.25
744 1486 0.25
744 1487 0.5
744 1488 0.25
745 1488 0.25
745 1489 0.5
745 1490 0.25
746 1490 0.25
746 1491 0.5
746 1492 0.25
747 1492 0.25
747 1493 0.5
747 1494 0.25
748 1494 0.25
748 1495 0.5
748 1496 0.25
749 1496 0.25
749 1497 0.5
749 1498 0.25
750 1498 0.25
750 1499 0.5
750 1500 0.25
751 1500 0.25
751 1501 0.5
751 1502 0.25
752 1502 0.25
752 1503 0.5
752 1504 0.25
753 1504 0.25
753 1505 0.5
753 1506 0.25
754 1506 0.25
754 1507 0.5
754 1508 0.25
755 1508 0.25
755 1509 0.5
755 1510 0.25
756 1510 0.25
756 1511 0.5
756 1512 0.25
757 1512 0.25
757 1513 0.5
757 1514 0.25
758 1514 0.25
758 1515 0.5
758 1516 0.25
759 1516 0.25
759 1517 0.5
759 1518 0.25
760 1518 0.25
760 1519 0.5
760 1520 0.25
761 1520 0.25
761 1521 0.5
761 1522 0.25
762 1522 0.25
762 1523 0.5
762 1524 0.25
763 1524 0.25
763 1525 0.5
763 1526 0.25
764 1526 0.25
764 1527 0.5
764 1528 0.25
765 1528 0.25
765 1529 0.5
765 1530 0.25
766 1530 0.25
766 1531 0.5
766 1532 0.25
767 1532 0.25
767 1533 0.5
767 1534 0.25
768 1534 0.25
768 1535 0.5
768 1536 0.25
769 1536 0.25
769 1537 0.5
769 1538 0.25
770 1538 0.25
770 1539 0.5
770 1540 0.25
771 1540 0.25
771 1541 0.5
771 1542 0.25
772 1542 0.25
772 1543 0.5
772 1544 0.25
773 1544 0.25
773 1545 0.5
773 1546 0.25
774 1546 0.25
774 1547 0.5
774 1548 0.25
775 1548 0.25
775 1549 0.5
775 1550 0.25
776 1550 0.25
776 1551 0.5
776 1552 0.25
777 1552 0.25
777 1553 0.5
777 1554 0.25
778 1554 0.25
778 1555 0.5
778 1556 0.25
779 1556 0.25
779 1557 0.5
779 1558 0.25
780 1558 0.25
780 1559 0.5
780 1560 0.25
781 1560 0.25
781 1561 0.5
781 1562 0.25
782 1562 0.25
782 1563 0.5
782 1564 0.25
783 1564 0.25
783 1565 0.5
783 1566 0.25
784 1566 0.25
784 1567 0.5
784 1568 0.25
785 1568 0.25
785 1569 0.5
785 1570 0.25
786 1570 0.25
786 1571 0.5
786 1572 0.25
787 1572 0.25
787 1573 0.5
787 1574 0.25
788 1574 0.25
788 1575 0.5
788 1576 0.25
789 1576 0.25
789 1577 0.5
789 1578 0.25
790 1578 0.25
790 1579 0.5
790 1580 0.25
791 1580 0.25
791 1581 0.5
791 1582 0.25
792 1582 0.25
792 1583 0.5
792 1584 0.25
793 1584 0.25
793 1585 0.5
793 1586 0.25
794 1586 0.25
794 1587 0.5
794 1588 0.25
795 1588 0.25
795 1589 0.5
795 1590 0.25
796 1590 0.25
796 1591 0.5
796 1592 0.25
797 1592 0.25
797 1593 0.5
797 1594 0.25
798 1594 0.25
798 1595 0.5
798 1596 0.25
799 1596 0.25
799 1597 0.5
799 1598 0.25
800 1598 0.25
800 1599 0.5
800 1600 0.25
801 1600 0.25
801 1601 0.5
801 1602 0.25
802 1602 0.25
802 1603 0.5
802 1604 0.25
803 1604 0.25
803 1605 0.5
803 1606 0.25
804 1606 0.25
804 1607 0.5
804 1608 0.25
805 1608 0.25
805 1609 0.5
805 1610 0.25
806 1610 0.25
806 1611 0.5
806 1612 0.25
807 1612 0.25
807 1613 0.5
807 1614 0.25
808 1614 0.25
808 1615 0.5
808 1616 0.25
809 1616 0.25
809 1617 0.5
809 1618 0.25
810 1618 0.25
810 1619 0.5
810 1620 0.25
811 1620 0.25
811 1621 0.5
811 1622 0.25
812 1622 0.25
812 1623 0.5
812 1624 0.25
813 1624 0.25
813 1625 0.5
813 1626 0.25
814 1626 0.25
814 1627 0.5
814 1628 0.25
815 1628 0.25
815 1629 0.5
815 1630 0.25
816 1630 0.25
816 1631 0.5
816 1632 0.25
817 1632 0.25
817 1633 0.5
817 1634 0.25
818 1634 0.25
818 1635 0.5
818 1636 0.25
819 1636 0.25
819 1637 0.5
819 1638 0.25
820 1638 0.25
820 1639 0.5
820 1640 0.25
821 1640 0.25
821 1641 0.5
821 1642 0.25
822 1642 0.25
822 1643 0.5
822 1644 0.25
823 1644 0.25
823 1645 0.5
823 1646 0.25
824 1646 0.25
824 1647 0.5
824 1648 0.25
825 1648 0.25
825 1649 0.5
825 1650 0.25
826 1650 0.25
826 1651 0.5
826 1652 0.25
827 1652 0.25
827 1653 0.5
827 1654 0.25
828 1654 0.25
828 1655 0.5
828 1656 0.25
829 1656 0.25
829 1657 0.5
829 1658 0.25
830 1658 0.25
830 1659 0.5
830 1660 0.25
831 1660 0.25
831 1661 0.5
831 1662 0.25
832 1662 0.25
832 1663 0.5
832 1664 0.25
833 1664 0.25
833 1665 0.5
833 1666 0.25
834 1666 0.25
834 1667 0.5
834 1668 0.25
835 1668 0.25
835 1669 0.5
835 1670 0.25
836 1670 0.25
836 1671 0.5
836 1672 0.25
837 1672 0.25
837 1673 0.5
837 1674 0.25
838 1674 0.25
838 1675 0.5
838 1676 0.25
839 1676 0.25
839 1677 0.5
839 1678 0.25
840 1678 0.25
840 1679 0.5
840 1680 0.25
841 1680 0.25
841 1681 0.5
841 1682 0.25
842 1682 0.25
842 1683 0.5
842 1684 0.25
843 1684 0.25
843 1685 0.5
843 1686 0.25
844 1686 0.25
844 1687 0.5
844 1688 0.25
845 1688 0.25
845 1689 0.5
845 1690 0.25
846 1690 0.25
846 1691 0.5
846 1692 0.25
847 1692 0.25
847 1693 0.5
847 1694 0.25
848 1694 0.25
848 1695 0.5
848 1696 0.25
849 1696 0.25
849 1697 0.5
849 1698 0.25
850 1698 0.25
850 1699 0.5
850 1700 0.25
851 1700 0.25
851 1701 0.5
851 1702 0.25
852 1702 0.25
852 1703 0.5
852 1704 0.25
853 1704 0.25
853 1705 0.5
853 1706 0.25
854 1706 0.25
854 1707 0.5
854 1708 0.25
855 1708 0.25
855 1709 0.5
855 1710 0.25
856 1710 0.25
856 1711 0.5
856 1712 0.25
857 1712 0.25
857 1713 0.5
857 1714 0.25
858 1714 0.25
858 1715 0.5
858 1716 0.25
859 1716 0.25
859 1717 0.5
859 1718 0.25
860 1718 0.25
860 1719 0.5
860 1720 0.25
861 1720 0.25
861 1721 0.5
861 1722 0.25
862 1722 0.25
862 1723 0.5
862 1724 0.25
863 1724 0.25
863 1725 0.5
863 1726 0.25
864 1726 0.25
864 1727 0.5
864 1728 0.25
865 1728 0.25
865 1729 0.5
865 1730 0.25
866 1730 0.25
866 1731 0.5
866 1732 0.25
867 1732 0.25
867 1733 0.5
867 1734 0.25
868 1734 0.25
868 1735 0.5
868 1736 0.25
869 1736 0.25
869 1737 0.5
869 1738 0.25
870 1738 0.25
870 1739 0.5
870 1740 0.25
871 1740 0.25
871 1741 0.5
871 1742 0.25
872 1742 0.25
872 1743 0.5
872 1744 0.25
873 1744 0.25
873 1745 0.5
873 1746 0.25
874 1746 0.25
874 1747 0.5
874 1748 0.25
875 1748 0.25
875 1749 0.5
875 1750 0.25
876 1750 0.25
876 1751 0.5
876 1752 0.25
877 1752 0.25
877 1753 0.5
877 1754 0.25
878 1754 0.25
878 1755 0.5
878 1756 0.25
879 1756 0.25
879 1757 0.5
879 1758 0.25
880 1758 0.25
880 1759 0.5
880 1760 0.25
881 1760 0.25
881 1761 0.5
881 1762 0.25
882 1762 0.25
882 1763 0.5
882 1764 0.25
883 1764 0.25
883 1765 0.5
883 1766 0.25
884 1766 0.25
884 1767 0.5
884 1768 0.25
885 1768 0.25
885 1769 0.5
885 1770 0.25
886 1770 0.25
886 1771 0.5
886 1772 0.25
887 1772 0.25
887 1773 0.5
887 1774 0.25
888 1774 0.25
888 1775 0.5
888 1776 0.25
889 1776 0.25
889 1777 0.5
889 1778 0.25
890 1778 0.25
890 1779 0.5
890 1780 0.25
891 1780 0.25
891 1781 0.5
891 1782 0.25
892 1782 0.25
892 1783 0.5
892 1784 0.25
893 1784 0.25
893 1785 0.5
893 1786 0.25
894 1786 0.25
894 1787 0.5
894 1788 0.25
895 1788 0.25
895 1789 0.5
895 1790 0.25
896 1790 0.25
896 1791 0.5
896 1792 0.25
897 1792 0.25
897 1793 0.5
897 1794 0.25
898 1794 0.25
898 1795 0.5
898 1796 0.25
899 1796 0.25
899 1797 0.5
899 1798 0.25
900 1798 0.25
900 1799 0.5
900 1800 0.25
901 1800 0.25
901 1801 0.5
901 1802 0.25
902 1802 0.25
902 1803 0.5
902 1804 0.25
903 1804 0.25
903 1805 0.5
903 1806 0.25
904 1806 0.25
904 1807 0.5
904 1808 0.25
905 1808 0.25
905 1809 0.5
905 1810 0.25
906 1810 0.25
906 1811 0.5
906 1812 0.25
907 1812 0.25
907 1813 0.5
907 1814 0.25
908 1814 0.25
908 1815 0.5
908 1816 0.25
909 1816 0.25
909 1817 0.5
909 1818 0.25
910 1818 0.25
910 1819 0.5
910 1820 0.25
911 1820 0.25
911 1821 0.5
911 1822 0.25
912 1822 0.25
912 1823 0.5
912 1824 0.25
913 1824 0.25
913 1825 0.5
913 1826 0.25
914 1826 0.25
914 1827 0.5
914 1828 0.25
915 1828 0.25
915 1829 0.5
915 1830 0.25
916 1830 0.25
916 1831 0.5
916 1832 0.25
917 1832 0.25
917 1833 0.5
917 1834 0.25
918 1834 0.25
918 1835 0.5
918 1836 0.25
919 1836 0.25
919 1837 0.5
919 1838 0.25
920 1838 0.25
920 1839 0.5
920 1840 0.25
921 1840 0.25
921 1841 0.5
921 1842 0.25
922 1842 0.25
922 1843 0.5
922 1844 0.25
923 1844 0.25
923 1845 0.5
923 1846 0.25
924 1846 0.25
924 1847 0.5
924 1848 0.25
925 1848 0.25
925 1849 0.5
925 1850 0.25
926 1850 0.25
926 1851 0.5
926 1852 0.25
927 1852 0.25
927 1853 0.5
927 1854 0.25
928 1854 0.25
928 1855 0.5
928 1856 0.25
929 1856 0.25
929 1857 0.5
929 1858 0.25
930 1858 0.25
930 1859 0.5
930 1860 0.25
931 1860 0.25
931 1861 0.5
931 1862 0.25
932 1862 0.25
932 1863 0.5
932 1864 0.25
933 1864 0.25
933 1865 0.5
933 1866 0.25
934 1866 0.25
934 1867 0.5
934 1868 0.25
935 1868 0.25
935 1869 0.5
935 1870 0.25
936 1870 0.25
936 1871 0.5
936 1872 0.25
937 1872 0.25
937 1873 0.5
937 1874 0.25
938 1874 0.25
938 1875 0.5
938 1876 0.25
939 1876 0.25
939 1877 0.5
939 1878 0.25
940 1878 0.25
940 1879 0.5
940 1880 0.25
941 1880 0.25
941 1881 0.5
941 1882 0.25
942 1882 0.25
942 1883 0.5
942 1884 0.25
943 1884 0.25
943 1885 0.5
943 1886 0.25
944 1886 0.25
944 1887 0.5
944 1888 0.25
945 1888 0.25
945 1889 0.5
945 1890 0.25
946 1890 0.25
946 1891 0.5
946 1892 0.25
947 1892 0.25
947 1893 0.5
947 1894 0.25
948 1894 0.25
948 1895 0.5
948 1896 0.25
949 1896 0.25
949 1897 0.5
949 1898 0.25
950 1898 0.25
950 1899 0.5
950 1900 0.25
951 1900 0.25
951 1901 0.5
951 1902 0.25
952 1902 0.25
952 1903 0.5
952 1904 0.25
953 1904 0.25
953 1905 0.5
953 1906 0.25
954 1906 0.25
954 1907 0.5
954 1908 0.25
955 1908 0.25
955 1909 0.5
955 1910 0.25
956 1910 0.25
956 1911 0.5
956 1912 0.25
957 1912 0.25
957 1913 0.5
957 1914 0.25
958 1914 0.25
958 1915 0.5
958 1916 0.25
959 1916 0.25
959 1917 0.5
959 1918 0.25
960 1918 0.25
960 1919 0.5
960 1920 0.25
961 1920 0.25
961 1921 0.5
961 1922 0.25
962 1922 0.25
962 1923 0.5
962 1924 0.25
963 1924 0.25
963 1925 0.5
963 1926 0.25
964 1926 0.25
964 1927 0.5
964 1928 0.25
965 1928 0.25
965 1929 0.5
965 1930 0.25
966 1930 0.25
966 1931 0.5
966 1932 0.25
967 1932 0.25
967 1933 0.5
967 1934 0.25
968 1934 0.25
968 1935 0.5
968 1936 0.25
969 1936 0.25
969 1937 0.5
969 1938 0.25
970 1938 0.25
970 1939 0.5
970 1940 0.25
971 1940 0.25
971 1941 0.5
971 1942 0.25
972 1942 0.25
972 1943 0.5
972 1944 0.25
973 1944 0.25
973 1945 0.5
973 1946 0.25
974 1946 0.25
974 1947 0.5
974 1948 0.25
975 1948 0.25
975 1949 0.5
975 1950 0.25
976 1950 0.25
976 1951 0.5
976 1952 0.25
977 1952 0.25
977 1953 0.5
977 1954 0.25
978 1954 0.25
978 1955 0.5
978 1956 0.25
979 1956 0.25
979 1957 0.5
979 1958 0.25
980 1958 0.25
980 1959 0.5
980 1960 0.25
981 1960 0.25
981 1961 0.5
981 1962 0.25
982 1962 0.25
982 1963 0.5
982 1964 0.25
983 1964 0.25
983 1965 0.5
983 1966 0.25
984 1966 0.25
984 1967 0.5
984 1968 0.25
985 1968 0.25
985 1969 0.5
985 1970 0.25
986 1970 0.25
986 1971 0.5
986 1972 0.25
987 1972 0.25
987 1973 0.5
987 1974 0.25
988 1974 0.25
988 1975 0.5
988 1976 0.25
989 1976 0.25
989 1977 0.5
989 1978 0.25
990 1978 0.25
990 1979 0.5
990 1980 0.25
991 1980 0.25
991 1981 0.5
991 1982 0.25
992 1982 0.25
992 1983 0.5
992 1984 0.25
993 1984 0.25
993 1985 0.5
993 1986 0.25
994 1986 0.25
994 1987 0.5
994 1988 0.25
995 1988 0.25
995 1989 0.5
995 1990 0.25
996 1990 0.25
996 1991 0.5
996 1992 0.25
997 1992 0.25
997 1993 0.5
997 1994 0.25
998 1994 0.25
998 1995 0.5
998 1996 0.25
999 1996 0.25
999 1997 0.5
999 1998 0.25
1000 1998 0.25
1000 1999 0.5
1000 2000 0.25
1001 2000 0.25
1001 2001 0.5
1001 2002 0.25
1002 2002 0.25
1002 2003 0.5
1002 2004 0.25
1003 2004 0.25
1003 2005 0.5
1003 2006 0.25
1004 2006 0.25
1004 2007 0.5
1004 2008 0.25
1005 2008 0.25
1005 2009 0.5
1005 2010 0.25
1006 2010 0.25
1006 2011 0.5
1006 2012 0.25
1007 2012 0.25
1007 2013 0.5
1007 2014 0.25
1008 2014 0.25
1008 2015 0.5
1008 2016 0.25
1009 2016 0.25
1009 2017 0.5
1009 2018 0.25
1010 2018 0.25
1010 2019 0.5
1010 2020 0.25
1011 2020 0.25
1011 2021 0.5
1011 2022 0.25
1012 2022 0.25
1012 2023 0.5
1012 2024 0.25
1013 2024 0.25
1013 2025 0.5
1013 2026 0.25
1014 2026 0.25
1014 2027 0.5
1014 2028 0.25
1015 2028 0.25
1015 2029 0.5
