%%MatrixMarket matrix coordinate real general
% simultaneous row/column permutation; splitmix64_fisher_yates_v1 seed=42
1015 1015 11003
1007 1007 0.875
251 1007 0.037513833557293499
369 1007 0.045819499776039802
10 1007 0.018756916778646798
114 1007 0.022909749888019901
1007 251 0.068729249664059799
251 251 0.84378458389323396
336 251 0.045819499776039802
10 251 0.018756916778646798
58 251 0.022909749888019901
257 257 0.85209025011198003
853 257 0.056270750335940298
596 257 0.045819499776039802
975 257 0.022909749888019901
873 257 0.022909749888019901
257 853 0.045819499776039802
853 853 0.86254150067188096
185 853 0.045819499776039802
975 853 0.022909749888019901
302 853 0.022909749888019901
666 666 0.875
902 666 0.037513833557293499
15 666 0.045819499776039802
736 666 0.018756916778646798
117 666 0.022909749888019901
666 902 0.068729249664059799
902 902 0.84378458389323396
280 902 0.045819499776039802
736 902 0.018756916778646798
483 902 0.022909749888019901
907 907 0.85209025011198003
703 907 0.056270750335940298
293 907 0.045819499776039802
305 907 0.022909749888019901
401 907 0.022909749888019901
907 703 0.045819499776039802
703 703 0.86254150067188096
370 703 0.045819499776039802
305 703 0.022909749888019901
608 703 0.022909749888019901
38 38 0.875
455 38 0.037513833557293499
655 38 0.045819499776039802
991 38 0.018756916778646798
179 38 0.022909749888019901
38 455 0.068729249664059799
455 455 0.84378458389323396
959 455 0.045819499776039802
991 455 0.018756916778646798
380 455 0.022909749888019901
148 148 0.85209025011198003
681 148 0.056270750335940298
677 148 0.045819499776039802
262 148 0.022909749888019901
240 148 0.022909749888019901
148 681 0.045819499776039802
681 681 0.86254150067188096
324 681 0.045819499776039802
262 681 0.022909749888019901
941 681 0.022909749888019901
361 361 0.875
845 361 0.037513833557293499
348 361 0.045819499776039802
896 361 0.018756916778646798
207 361 0.022909749888019901
361 845 0.068729249664059799
845 845 0.84378458389323396
90 845 0.045819499776039802
896 845 0.018756916778646798
700 845 0.022909749888019901
703 370 0.056270750335940298
370 370 0.85209025011198003
293 370 0.045819499776039802
608 370 0.022909749888019901
903 370 0.022909749888019901
603 603 0.875
694 603 0.037513833557293499
719 603 0.045819499776039802
925 603 0.018756916778646798
780 603 0.022909749888019901
603 694 0.068729249664059799
694 694 0.84378458389323396
674 694 0.045819499776039802
925 694 0.018756916778646798
13 694 0.022909749888019901
554 554 0.85209025011198003
162 554 0.056270750335940298
874 554 0.045819499776039802
555 554 0.022909749888019901
621 554 0.022909749888019901
554 162 0.045819499776039802
162 162 0.86254150067188096
97 162 0.045819499776039802
555 162 0.022909749888019901
525 162 0.022909749888019901
451 451 0.875
402 451 0.037513833557293499
163 451 0.045819499776039802
277 451 0.018756916778646798
68 451 0.022909749888019901
451 402 0.068729249664059702
402 402 0.84378458389323396
194 402 0.045819499776039802
277 402 0.018756916778646798
1015 402 0.022909749888019901
681 324 0.056270750335940298
324 324 0.85209025011198003
677 324 0.045819499776039802
941 324 0.022909749888019901
310 324 0.022909749888019901
790 790 0.875
456 790 0.037513833557293499
879 790 0.045819499776039802
842 790 0.018756916778646798
724 790 0.022909749888019901
790 456 0.068729249664059799
456 456 0.84378458389323396
537 456 0.045819499776039802
842 456 0.018756916778646798
863 456 0.022909749888019901
162 97 0.056270750335940298
97 97 0.85209025011198003
874 97 0.045819499776039802
525 97 0.022909749888019901
34 97 0.022909749888019901
377 377 0.875
970 377 0.037513833557293499
690 377 0.045819499776039802
819 377 0.018756916778646798
73 377 0.022909749888019901
377 970 0.068729249664059799
970 970 0.84378458389323396
625 970 0.045819499776039802
819 970 0.018756916778646798
882 970 0.022909749888019901
853 185 0.056270750335940298
185 185 0.85209025011198003
596 185 0.045819499776039802
302 185 0.022909749888019901
760 185 0.022909749888019901
283 283 0.85624308322135301
714 283 0.037513833557293499
443 283 0.068729249664059799
142 283 0.018756916778646798
659 283 0.018756916778646798
283 714 0.068729249664059799
714 714 0.82502766711458697
805 714 0.068729249664059799
142 714 0.018756916778646798
434 714 0.018756916778646798
970 625 0.056270750335940298
625 625 0.83333333333333304
690 625 0.068729249664059799
882 625 0.022909749888019901
331 625 0.018756916778646798
219 219 0.85624308322135301
496 219 0.037513833557293499
242 219 0.068729249664059799
389 219 0.018756916778646798
296 219 0.018756916778646798
219 496 0.068729249664059702
496 496 0.82502766711458697
833 496 0.068729249664059702
389 496 0.018756916778646798
549 496 0.018756916778646798
845 90 0.056270750335940298
90 90 0.83333333333333304
348 90 0.068729249664059799
700 90 0.022909749888019901
222 90 0.018756916778646798
489 489 0.85624308322135301
241 489 0.037513833557293499
287 489 0.068729249664059799
1002 489 0.018756916778646798
570 489 0.018756916778646798
489 241 0.068729249664059702
241 241 0.82502766711458697
908 241 0.068729249664059702
1002 241 0.018756916778646798
881 241 0.018756916778646798
402 194 0.056270750335940298
194 194 0.83333333333333304
163 194 0.068729249664059799
1015 194 0.022909749888019901
5 194 0.018756916778646798
496 833 0.037513833557293499
833 833 0.85624308322135301
242 833 0.068729249664059799
549 833 0.018756916778646798
761 833 0.018756916778646798
902 280 0.056270750335940298
280 280 0.83333333333333304
15 280 0.068729249664059799
483 280 0.022909749888019901
709 280 0.018756916778646798
818 818 0.85624308322135301
850 818 0.037513833557293499
14 818 0.068729249664059799
785 818 0.018756916778646798
628 818 0.018756916778646798
818 850 0.068729249664059799
850 850 0.82502766711458697
299 850 0.068729249664059799
785 850 0.018756916778646798
735 850 0.018756916778646798
456 537 0.056270750335940298
537 537 0.83333333333333304
879 537 0.068729249664059799
863 537 0.022909749888019901
653 537 0.018756916778646798
241 908 0.037513833557293499
908 908 0.85624308322135301
287 908 0.068729249664059799
881 908 0.018756916778646798
260 908 0.018756916778646798
455 959 0.056270750335940298
959 959 0.83333333333333304
655 959 0.068729249664059799
380 959 0.022909749888019901
48 959 0.018756916778646798
850 299 0.037513833557293499
299 299 0.85624308322135301
14 299 0.068729249664059799
735 299 0.018756916778646798
2 299 0.018756916778646798
694 674 0.056270750335940298
674 674 0.83333333333333304
719 674 0.068729249664059799
13 674 0.022909749888019901
83 674 0.018756916778646798
714 805 0.037513833557293499
805 805 0.85624308322135301
443 805 0.068729249664059799
434 805 0.018756916778646798
783 805 0.018756916778646798
251 336 0.056270750335940298
336 336 0.83333333333333304
369 336 0.068729249664059799
58 336 0.022909749888019901
270 336 0.018756916778646798
1007 369 0.056270750335940298
336 369 0.037513833557293499
369 369 0.86454874944009996
270 369 0.018756916778646798
114 369 0.022909749888019901
257 596 0.056270750335940298
185 596 0.056270750335940298
596 596 0.84163899955207999
760 596 0.022909749888019901
873 596 0.022909749888019901
666 15 0.056270750335940298
280 15 0.037513833557293499
15 15 0.86454874944009996
709 15 0.018756916778646701
117 15 0.022909749888019901
907 293 0.056270750335940298
370 293 0.056270750335940298
293 293 0.84163899955207999
903 293 0.022909749888019901
401 293 0.022909749888019901
38 655 0.056270750335940298
959 655 0.037513833557293499
655 655 0.86454874944009996
48 655 0.018756916778646701
179 655 0.022909749888019901
148 677 0.056270750335940298
324 677 0.056270750335940298
677 677 0.84163899955207999
310 677 0.022909749888019901
240 677 0.022909749888019901
361 348 0.056270750335940298
90 348 0.037513833557293499
348 348 0.86454874944009996
222 348 0.018756916778646701
207 348 0.022909749888019901
603 719 0.056270750335940298
674 719 0.037513833557293499
719 719 0.86454874944009996
83 719 0.018756916778646701
780 719 0.022909749888019901
554 874 0.056270750335940298
97 874 0.056270750335940298
874 874 0.84163899955207999
34 874 0.022909749888019901
621 874 0.022909749888019901
451 163 0.056270750335940298
194 163 0.037513833557293499
163 163 0.86454874944009996
5 163 0.018756916778646798
68 163 0.022909749888019901
790 879 0.056270750335940298
537 879 0.037513833557293499
879 879 0.86454874944009996
653 879 0.018756916778646701
724 879 0.022909749888019901
377 690 0.056270750335940298
625 690 0.037513833557293499
690 690 0.86454874944009996
331 690 0.018756916778646701
73 690 0.022909749888019901
283 443 0.037513833557293499
805 443 0.037513833557293499
443 443 0.88745849932811904
783 443 0.018756916778646798
659 443 0.018756916778646798
219 242 0.037513833557293499
833 242 0.037513833557293499
242 242 0.88745849932811904
761 242 0.018756916778646701
296 242 0.018756916778646701
489 287 0.037513833557293499
908 287 0.037513833557293499
287 287 0.88745849932811904
260 287 0.018756916778646701
570 287 0.018756916778646701
818 14 0.037513833557293499
299 14 0.037513833557293499
14 14 0.88745849932811904
2 14 0.018756916778646798
628 14 0.018756916778646798
1007 10 0.068729249664059799
251 10 0.037513833557293499
10 10 0.76875691677864699
975 10 0.037513833557293499
270 10 0.045819499776039802
645 10 0.018756916778646798
276 10 0.022909749888019901
257 975 0.045819499776039802
853 975 0.056270750335940298
10 975 0.068729249664059799
975 975 0.74169433378125404
760 975 0.045819499776039802
645 975 0.018756916778646798
786 975 0.022909749888019901
666 736 0.068729249664059799
902 736 0.037513833557293499
736 736 0.74584716689062702
305 736 0.056270750335940298
709 736 0.045819499776039802
518 736 0.022909749888019901
872 736 0.022909749888019901
907 305 0.045819499776039802
703 305 0.056270750335940298
736 305 0.045819499776039802
305 305 0.76045125055990004
903 305 0.045819499776039802
518 305 0.022909749888019901
1010 305 0.022909749888019901
38 991 0.068729249664059799
455 991 0.037513833557293499
991 991 0.76875691677864699
262 991 0.037513833557293499
48 991 0.045819499776039802
450 991 0.018756916778646701
708 991 0.022909749888019901
148 262 0.045819499776039802
681 262 0.056270750335940298
991 262 0.068729249664059799
262 262 0.74169433378125404
310 262 0.045819499776039802
450 262 0.018756916778646798
511 262 0.022909749888019901
361 896 0.068729249664059799
845 896 0.037513833557293499
896 896 0.74584716689062702
608 896 0.056270750335940298
222 896 0.045819499776039802
918 896 0.022909749888019901
227 896 0.022909749888019901
703 608 0.056270750335940298
370 608 0.045819499776039802
896 608 0.045819499776039802
608 608 0.76045125055990004
401 608 0.045819499776039802
918 608 0.022909749888019901
1010 608 0.022909749888019901
603 925 0.068729249664059799
694 925 0.037513833557293499
925 925 0.76875691677864699
555 925 0.037513833557293499
83 925 0.045819499776039802
541 925 0.018756916778646701
426 925 0.022909749888019901
554 555 0.045819499776039802
162 555 0.056270750335940298
925 555 0.068729249664059799
555 555 0.74169433378125404
34 555 0.045819499776039802
541 555 0.018756916778646798
871 555 0.022909749888019901
451 277 0.068729249664059702
402 277 0.037513833557293499
277 277 0.74584716689062702
941 277 0.056270750335940298
5 277 0.045819499776039802
220 277 0.022909749888019901
49 277 0.022909749888019901
681 941 0.056270750335940298
324 941 0.045819499776039802
277 941 0.045819499776039802
941 941 0.76045125055990004
240 941 0.045819499776039802
220 941 0.022909749888019901
511 941 0.022909749888019901
790 842 0.068729249664059799
456 842 0.037513833557293499
842 842 0.76875691677864699
525 842 0.037513833557293499
653 842 0.045819499776039802
312 842 0.018756916778646701
584 842 0.022909749888019901
162 525 0.056270750335940298
97 525 0.045819499776039802
842 525 0.068729249664059799
525 525 0.74169433378125404
621 525 0.045819499776039802
312 525 0.018756916778646798
871 525 0.022909749888019901
377 819 0.068729249664059799
970 819 0.037513833557293499
819 819 0.74584716689062702
302 819 0.056270750335940298
331 819 0.045819499776039802
773 819 0.022909749888019901
768 819 0.022909749888019901
853 302 0.056270750335940298
185 302 0.045819499776039802
819 302 0.045819499776039802
302 302 0.76045125055990004
873 302 0.045819499776039802
773 302 0.022909749888019901
786 302 0.022909749888019901
283 142 0.068729249664059799
714 142 0.037513833557293499
142 142 0.75
882 142 0.037513833557293499
783 142 0.068729249664059799
246 142 0.018756916778646701
235 142 0.018756916778646798
970 882 0.056270750335940298
625 882 0.045819499776039802
142 882 0.068729249664059799
882 882 0.72293741700260705
73 882 0.068729249664059799
246 882 0.018756916778646798
768 882 0.018756916778646798
219 389 0.068729249664059702
496 389 0.037513833557293499
389 389 0.72709025011198003
700 389 0.056270750335940298
761 389 0.068729249664059702
729 389 0.022909749888019901
915 389 0.018756916778646798
845 700 0.056270750335940298
90 700 0.045819499776039802
389 700 0.045819499776039802
700 700 0.74169433378125404
207 700 0.068729249664059799
729 700 0.022909749888019901
227 700 0.018756916778646798
489 1002 0.068729249664059702
241 1002 0.037513833557293499
1002 1002 0.75
1015 1002 0.037513833557293499
260 1002 0.068729249664059702
752 1002 0.018756916778646798
100 1002 0.018756916778646798
402 1015 0.056270750335940298
194 1015 0.045819499776039802
1002 1015 0.068729249664059799
1015 1015 0.72293741700260705
68 1015 0.068729249664059799
752 1015 0.018756916778646798
49 1015 0.018756916778646798
496 549 0.037513833557293499
833 549 0.068729249664059702
549 549 0.72709025011198003
483 549 0.056270750335940298
296 549 0.068729249664059702
453 549 0.022909749888019901
915 549 0.018756916778646798
902 483 0.056270750335940298
280 483 0.045819499776039802
549 483 0.045819499776039802
483 483 0.74169433378125404
117 483 0.068729249664059799
453 483 0.022909749888019901
872 483 0.018756916778646798
818 785 0.068729249664059799
850 785 0.037513833557293499
785 785 0.75
863 785 0.037513833557293499
2 785 0.068729249664059799
232 785 0.018756916778646701
647 785 0.018756916778646798
456 863 0.056270750335940298
537 863 0.045819499776039802
785 863 0.068729249664059799
863 863 0.72293741700260705
724 863 0.068729249664059799
232 863 0.018756916778646798
584 863 0.018756916778646798
241 881 0.037513833557293499
908 881 0.068729249664059702
881 881 0.72709025011198003
380 881 0.056270750335940298
570 881 0.068729249664059702
809 881 0.022909749888019901
100 881 0.018756916778646798
455 380 0.056270750335940298
959 380 0.045819499776039802
881 380 0.045819499776039802
380 380 0.74169433378125404
179 380 0.068729249664059799
809 380 0.022909749888019901
708 380 0.018756916778646798
850 735 0.037513833557293499
299 735 0.068729249664059799
735 735 0.75
13 735 0.037513833557293499
628 735 0.068729249664059799
144 735 0.018756916778646701
647 735 0.018756916778646798
694 13 0.056270750335940298
674 13 0.045819499776039802
735 13 0.068729249664059799
13 13 0.72293741700260705
780 13 0.068729249664059799
144 13 0.018756916778646798
426 13 0.018756916778646798
714 434 0.037513833557293499
805 434 0.068729249664059799
434 434 0.72709025011198003
58 434 0.056270750335940298
659 434 0.068729249664059799
254 434 0.022909749888019901
235 434 0.018756916778646798
251 58 0.056270750335940298
336 58 0.045819499776039802
434 58 0.045819499776039802
58 58 0.74169433378125404
114 58 0.068729249664059799
254 58 0.022909749888019901
276 58 0.018756916778646798
336 270 0.037513833557293499
369 270 0.068729249664059799
10 270 0.056270750335940298
270 270 0.75830566621874596
760 270 0.037513833557293499
394 270 0.018756916778646798
276 270 0.022909749888019901
185 760 0.056270750335940298
596 760 0.045819499776039802
975 760 0.056270750335940298
270 760 0.068729249664059799
760 760 0.73124308322135301
394 760 0.018756916778646798
786 760 0.022909749888019901
280 709 0.037513833557293499
15 709 0.068729249664059799
736 709 0.056270750335940298
709 709 0.73539591633072598
903 709 0.056270750335940298
728 709 0.022909749888019901
872 709 0.022909749888019901
370 903 0.056270750335940298
293 903 0.045819499776039802
305 903 0.056270750335940298
709 903 0.045819499776039802
903 903 0.75
728 903 0.022909749888019901
1010 903 0.022909749888019901
959 48 0.037513833557293499
655 48 0.068729249664059799
991 48 0.056270750335940298
48 48 0.75830566621874596
310 48 0.037513833557293499
457 48 0.018756916778646798
708 48 0.022909749888019901
324 310 0.056270750335940298
677 310 0.045819499776039802
262 310 0.056270750335940298
48 310 0.068729249664059702
310 310 0.73124308322135301
457 310 0.018756916778646798
511 310 0.022909749888019901
90 222 0.037513833557293499
348 222 0.068729249664059799
896 222 0.056270750335940298
222 222 0.73539591633072598
401 222 0.056270750335940298
417 222 0.022909749888019901
227 222 0.022909749888019901
907 401 0.056270750335940298
293 401 0.045819499776039802
608 401 0.056270750335940298
222 401 0.045819499776039802
401 401 0.75
417 401 0.022909749888019901
1010 401 0.022909749888019901
674 83 0.037513833557293499
719 83 0.068729249664059799
925 83 0.056270750335940298
83 83 0.75830566621874596
34 83 0.037513833557293499
860 83 0.018756916778646798
426 83 0.022909749888019901
97 34 0.056270750335940298
874 34 0.045819499776039802
555 34 0.056270750335940298
83 34 0.068729249664059702
34 34 0.73124308322135301
860 34 0.018756916778646798
871 34 0.022909749888019901
194 5 0.037513833557293499
163 5 0.068729249664059799
277 5 0.056270750335940298
5 5 0.73539591633072598
240 5 0.056270750335940298
553 5 0.022909749888019901
49 5 0.022909749888019901
148 240 0.056270750335940298
677 240 0.045819499776039802
941 240 0.056270750335940298
5 240 0.045819499776039802
240 240 0.75
553 240 0.022909749888019901
511 240 0.022909749888019901
537 653 0.037513833557293499
879 653 0.068729249664059799
842 653 0.056270750335940298
653 653 0.75830566621874596
621 653 0.037513833557293499
668 653 0.018756916778646798
584 653 0.022909749888019901
554 621 0.056270750335940298
874 621 0.045819499776039802
525 621 0.056270750335940298
653 621 0.068729249664059702
621 621 0.73124308322135301
668 621 0.018756916778646798
871 621 0.022909749888019901
625 331 0.037513833557293499
690 331 0.068729249664059799
819 331 0.056270750335940298
331 331 0.73539591633072598
873 331 0.056270750335940298
520 331 0.022909749888019901
768 331 0.022909749888019901
257 873 0.056270750335940298
596 873 0.045819499776039802
302 873 0.056270750335940298
331 873 0.045819499776039802
873 873 0.75
520 873 0.022909749888019901
786 873 0.022909749888019901
805 783 0.037513833557293499
443 783 0.068729249664059799
142 783 0.037513833557293499
783 783 0.78121541610676604
73 783 0.037513833557293499
196 783 0.018756916778646798
235 783 0.018756916778646798
377 73 0.056270750335940298
690 73 0.045819499776039802
882 73 0.037513833557293499
783 73 0.068729249664059799
73 73 0.75415283310937298
196 73 0.018756916778646798
768 73 0.018756916778646701
833 761 0.037513833557293499
242 761 0.068729249664059799
389 761 0.037513833557293499
761 761 0.75830566621874596
207 761 0.056270750335940298
267 761 0.022909749888019901
915 761 0.018756916778646798
361 207 0.056270750335940298
348 207 0.045819499776039802
700 207 0.037513833557293499
761 207 0.045819499776039802
207 207 0.77290974988801997
267 207 0.022909749888019901
227 207 0.018756916778646701
908 260 0.037513833557293499
287 260 0.068729249664059799
1002 260 0.037513833557293499
260 260 0.78121541610676604
68 260 0.037513833557293499
627 260 0.018756916778646798
100 260 0.018756916778646798
451 68 0.056270750335940298
163 68 0.045819499776039802
1015 68 0.037513833557293499
260 68 0.068729249664059702
68 68 0.75415283310937298
627 68 0.018756916778646798
49 68 0.018756916778646798
219 296 0.037513833557293499
242 296 0.068729249664059799
549 296 0.037513833557293499
296 296 0.75830566621874596
117 296 0.056270750335940298
230 296 0.022909749888019901
915 296 0.018756916778646798
666 117 0.056270750335940298
15 117 0.045819499776039802
483 117 0.037513833557293499
296 117 0.045819499776039802
117 117 0.77290974988801997
230 117 0.022909749888019901
872 117 0.018756916778646701
299 2 0.037513833557293499
14 2 0.068729249664059799
785 2 0.037513833557293499
2 2 0.78121541610676604
724 2 0.037513833557293499
512 2 0.018756916778646798
647 2 0.018756916778646798
790 724 0.056270750335940298
879 724 0.045819499776039802
863 724 0.037513833557293499
2 724 0.068729249664059799
724 724 0.75415283310937298
512 724 0.018756916778646798
584 724 0.018756916778646701
489 570 0.037513833557293499
287 570 0.068729249664059799
881 570 0.037513833557293499
570 570 0.75830566621874596
179 570 0.056270750335940298
956 570 0.022909749888019901
100 570 0.018756916778646798
38 179 0.056270750335940298
655 179 0.045819499776039802
380 179 0.037513833557293499
570 179 0.045819499776039802
179 179 0.77290974988801997
956 179 0.022909749888019901
708 179 0.018756916778646701
818 628 0.037513833557293499
14 628 0.068729249664059799
735 628 0.037513833557293499
628 628 0.78121541610676604
780 628 0.037513833557293499
202 628 0.018756916778646798
647 628 0.018756916778646798
603 780 0.056270750335940298
719 780 0.045819499776039802
13 780 0.037513833557293499
628 780 0.068729249664059799
780 780 0.75415283310937298
202 780 0.018756916778646798
426 780 0.018756916778646701
283 659 0.037513833557293499
443 659 0.068729249664059799
434 659 0.037513833557293499
659 659 0.75830566621874596
114 659 0.056270750335940298
291 659 0.022909749888019901
235 659 0.018756916778646798
1007 114 0.056270750335940298
369 114 0.045819499776039802
58 114 0.037513833557293499
659 114 0.045819499776039802
114 114 0.77290974988801997
291 114 0.022909749888019901
276 114 0.018756916778646798
510 510 0.77290974988801997
738 510 0.037513833557293499
1012 510 0.037513833557293499
1 510 0.045819499776039802
645 510 0.045819499776039802
1009 510 0.018756916778646798
238 510 0.022909749888019901
587 510 0.018756916778646798
510 738 0.045819499776039802
738 738 0.78751383355729399
313 738 0.018756916778646798
383 738 0.045819499776039802
645 738 0.022909749888019901
518 738 0.018756916778646798
180 738 0.018756916778646798
988 738 0.022909749888019901
587 738 0.018756916778646798
510 1012 0.045819499776039802
1012 1012 0.78751383355729399
313 1012 0.018756916778646798
286 1012 0.045819499776039802
645 1012 0.022909749888019901
518 1012 0.018756916778646798
1009 1012 0.018756916778646798
170 1012 0.022909749888019901
151 1012 0.018756916778646798
738 313 0.068729249664059799
1012 313 0.068729249664059799
313 313 0.71878458389323396
825 313 0.045819499776039802
518 313 0.037513833557293499
180 313 0.018756916778646798
930 313 0.022909749888019901
151 313 0.018756916778646798
236 236 0.72709025011198003
297 236 0.056270750335940298
932 236 0.056270750335940298
535 236 0.045819499776039802
450 236 0.045819499776039802
856 236 0.022909749888019901
173 236 0.022909749888019901
494 236 0.022909749888019901
236 297 0.022909749888019901
297 297 0.78336100044792001
64 297 0.037513833557293499
233 297 0.045819499776039802
450 297 0.022909749888019901
918 297 0.018756916778646798
265 297 0.022909749888019901
127 297 0.022909749888019901
494 297 0.022909749888019901
236 932 0.022909749888019901
932 932 0.78336100044792001
64 932 0.037513833557293499
198 932 0.045819499776039802
450 932 0.022909749888019901
918 932 0.018756916778646798
856 932 0.022909749888019901
793 932 0.022909749888019901
528 932 0.022909749888019901
297 64 0.045819499776039802
932 64 0.045819499776039802
64 64 0.75629841745052695
61 64 0.045819499776039802
918 64 0.037513833557293499
265 64 0.022909749888019901
211 64 0.022909749888019901
528 64 0.022909749888019901
237 237 0.77290974988801997
776 237 0.037513833557293499
231 237 0.037513833557293499
983 237 0.045819499776039802
541 237 0.045819499776039802
11 237 0.018756916778646798
484 237 0.022909749888019901
847 237 0.018756916778646798
237 776 0.045819499776039802
776 776 0.78751383355729399
964 776 0.018756916778646798
399 776 0.045819499776039802
541 776 0.022909749888019901
220 776 0.018756916778646798
755 776 0.018756916778646798
329 776 0.022909749888019901
847 776 0.018756916778646798
237 231 0.045819499776039802
231 231 0.78751383355729399
964 231 0.018756916778646798
675 231 0.045819499776039802
541 231 0.022909749888019901
220 231 0.018756916778646798
11 231 0.018756916778646798
712 231 0.022909749888019901
906 231 0.018756916778646798
776 964 0.068729249664059702
231 964 0.068729249664059702
964 964 0.71878458389323396
562 964 0.045819499776039802
220 964 0.037513833557293499
755 964 0.018756916778646798
411 964 0.022909749888019901
906 964 0.018756916778646798
63 63 0.72709025011198003
987 63 0.056270750335940298
376 63 0.056270750335940298
806 63 0.045819499776039802
312 63 0.045819499776039802
8 63 0.022909749888019901
868 63 0.022909749888019901
658 63 0.022909749888019901
63 987 0.022909749888019901
987 987 0.78336100044792001
811 987 0.037513833557293499
70 987 0.045819499776039802
312 987 0.022909749888019901
773 987 0.018756916778646798
965 987 0.022909749888019901
282 987 0.022909749888019901
658 987 0.022909749888019901
63 376 0.022909749888019901
376 376 0.78336100044792001
811 376 0.037513833557293499
103 376 0.045819499776039802
312 376 0.022909749888019901
773 376 0.018756916778646798
8 376 0.022909749888019901
935 376 0.022909749888019901
857 376 0.022909749888019901
987 811 0.045819499776039802
376 811 0.045819499776039802
811 811 0.75629841745052695
93 811 0.045819499776039802
773 811 0.037513833557293499
965 811 0.022909749888019901
364 811 0.022909749888019901
857 811 0.022909749888019901
966 966 0.75415283310937298
672 966 0.037513833557293499
501 966 0.037513833557293499
119 966 0.068729249664059799
246 966 0.045819499776039802
582 966 0.018756916778646798
409 966 0.018756916778646798
624 966 0.018756916778646798
966 672 0.045819499776039802
672 672 0.76875691677864699
505 672 0.018756916778646798
39 672 0.068729249664059799
246 672 0.022909749888019901
729 672 0.018756916778646798
250 672 0.018756916778646798
933 672 0.018756916778646798
624 672 0.018756916778646798
966 501 0.045819499776039802
501 501 0.76875691677864699
505 501 0.018756916778646798
481 501 0.068729249664059799
246 501 0.022909749888019901
729 501 0.018756916778646798
582 501 0.018756916778646798
288 501 0.018756916778646798
176 501 0.018756916778646798
672 505 0.068729249664059702
501 505 0.068729249664059702
505 505 0.70002766711458697
25 505 0.068729249664059702
729 505 0.037513833557293499
250 505 0.018756916778646798
112 505 0.018756916778646798
176 505 0.018756916778646798
820 820 0.70833333333333304
43 820 0.056270750335940298
429 820 0.056270750335940298
890 820 0.068729249664059799
752 820 0.045819499776039802
812 820 0.022909749888019901
458 820 0.018756916778646798
314 820 0.022909749888019901
820 43 0.022909749888019901
43 43 0.76460408366927402
139 43 0.037513833557293499
213 43 0.068729249664059702
752 43 0.022909749888019901
453 43 0.018756916778646798
578 43 0.022909749888019901
56 43 0.018756916778646798
314 43 0.022909749888019901
820 429 0.022909749888019901
429 429 0.76460408366927402
139 429 0.037513833557293499
206 429 0.068729249664059702
752 429 0.022909749888019901
453 429 0.018756916778646798
812 429 0.022909749888019901
256 429 0.018756916778646798
692 429 0.022909749888019901
43 139 0.045819499776039802
429 139 0.045819499776039802
139 139 0.73754150067188096
515 139 0.068729249664059702
453 139 0.037513833557293499
578 139 0.022909749888019901
308 139 0.018756916778646798
692 139 0.022909749888019901
47 47 0.75415283310937298
701 47 0.037513833557293499
971 47 0.037513833557293499
787 47 0.068729249664059799
232 47 0.045819499776039802
546 47 0.018756916778646798
229 47 0.018756916778646798
403 47 0.018756916778646798
47 701 0.045819499776039802
701 701 0.76875691677864699
472 701 0.018756916778646798
439 701 0.068729249664059799
232 701 0.022909749888019901
809 701 0.018756916778646798
648 701 0.018756916778646798
981 701 0.018756916778646798
403 701 0.018756916778646798
47 971 0.045819499776039802
971 971 0.76875691677864699
472 971 0.018756916778646798
744 971 0.068729249664059799
232 971 0.022909749888019901
809 971 0.018756916778646798
546 971 0.018756916778646798
225 971 0.018756916778646798
156 971 0.018756916778646798
701 472 0.068729249664059702
971 472 0.068729249664059702
472 472 0.70002766711458697
209 472 0.068729249664059702
809 472 0.037513833557293499
648 472 0.018756916778646798
765 472 0.018756916778646798
156 472 0.018756916778646798
513 513 0.70833333333333304
984 513 0.056270750335940298
887 513 0.056270750335940298
136 513 0.068729249664059799
144 513 0.045819499776039802
623 513 0.022909749888019901
79 513 0.018756916778646798
934 513 0.022909749888019901
513 984 0.022909749888019901
984 984 0.76460408366927402
115 984 0.037513833557293499
84 984 0.068729249664059799
144 984 0.022909749888019901
254 984 0.018756916778646798
963 984 0.022909749888019901
919 984 0.018756916778646798
934 984 0.022909749888019901
513 887 0.022909749888019901
887 887 0.76460408366927402
115 887 0.037513833557293499
931 887 0.068729249664059799
144 887 0.022909749888019901
254 887 0.018756916778646798
623 887 0.022909749888019901
756 887 0.018756916778646798
929 887 0.022909749888019901
984 115 0.045819499776039802
887 115 0.045819499776039802
115 115 0.73754150067188096
42 115 0.068729249664059799
254 115 0.037513833557293499
963 115 0.022909749888019901
840 115 0.018756916778646798
929 115 0.022909749888019901
510 1 0.056270750335940298
1 1 0.76245849932811904
383 1 0.037513833557293499
286 1 0.037513833557293499
394 1 0.045819499776039802
499 1 0.018756916778646798
238 1 0.022909749888019901
372 1 0.018756916778646798
738 383 0.056270750335940298
1 383 0.045819499776039802
383 383 0.77706258299739295
825 383 0.018756916778646701
394 383 0.022909749888019901
728 383 0.018756916778646701
350 383 0.018756916778646701
988 383 0.022909749888019901
372 383 0.018756916778646798
1012 286 0.056270750335940298
1 286 0.045819499776039802
286 286 0.77706258299739295
825 286 0.018756916778646701
394 286 0.022909749888019901
728 286 0.018756916778646701
499 286 0.018756916778646798
170 286 0.022909749888019901
504 286 0.018756916778646701
313 825 0.056270750335940298
383 825 0.068729249664059799
286 825 0.068729249664059799
825 825 0.70833333333333304
728 825 0.037513833557293499
350 825 0.018756916778646798
930 825 0.022909749888019901
504 825 0.018756916778646798
236 535 0.056270750335940298
535 535 0.71663899955207999
233 535 0.056270750335940298
198 535 0.056270750335940298
457 535 0.045819499776039802
143 535 0.022909749888019901
173 535 0.022909749888019901
379 535 0.022909749888019901
297 233 0.056270750335940298
535 233 0.022909749888019901
233 233 0.77290974988801997
61 233 0.037513833557293499
457 233 0.022909749888019901
417 233 0.018756916778646798
995 233 0.022909749888019901
127 233 0.022909749888019901
379 233 0.022909749888019901
932 198 0.056270750335940298
535 198 0.022909749888019901
198 198 0.77290974988801997
61 198 0.037513833557293499
457 198 0.022909749888019901
417 198 0.018756916778646798
143 198 0.022909749888019901
793 198 0.022909749888019901
585 198 0.022909749888019901
64 61 0.056270750335940298
233 61 0.045819499776039802
198 61 0.045819499776039802
61 61 0.74584716689062702
417 61 0.037513833557293499
995 61 0.022909749888019901
211 61 0.022909749888019901
585 61 0.022909749888019901
237 983 0.056270750335940298
983 983 0.76245849932811904
399 983 0.037513833557293499
675 983 0.037513833557293499
860 983 0.045819499776039802
937 983 0.018756916778646798
484 983 0.022909749888019901
1005 983 0.018756916778646798
776 399 0.056270750335940298
983 399 0.045819499776039802
399 399 0.77706258299739295
562 399 0.018756916778646798
860 399 0.022909749888019901
553 399 0.018756916778646798
1001 399 0.018756916778646798
329 399 0.022909749888019901
1005 399 0.018756916778646798
231 675 0.056270750335940298
983 675 0.045819499776039802
675 675 0.77706258299739295
562 675 0.018756916778646798
860 675 0.022909749888019901
553 675 0.018756916778646798
937 675 0.018756916778646798
712 675 0.022909749888019901
358 675 0.018756916778646798
964 562 0.056270750335940298
399 562 0.068729249664059799
675 562 0.068729249664059799
562 562 0.70833333333333304
553 562 0.037513833557293499
1001 562 0.018756916778646798
411 562 0.022909749888019901
358 562 0.018756916778646798
63 806 0.056270750335940298
806 806 0.71663899955207999
70 806 0.056270750335940298
103 806 0.056270750335940298
668 806 0.045819499776039802
698 806 0.022909749888019901
868 806 0.022909749888019901
473 806 0.022909749888019901
987 70 0.056270750335940298
806 70 0.022909749888019901
70 70 0.77290974988801997
93 70 0.037513833557293499
668 70 0.022909749888019901
520 70 0.018756916778646798
843 70 0.022909749888019901
282 70 0.022909749888019901
473 70 0.022909749888019901
376 103 0.056270750335940298
806 103 0.022909749888019901
103 103 0.77290974988801997
93 103 0.037513833557293499
668 103 0.022909749888019901
520 103 0.018756916778646798
698 103 0.022909749888019901
935 103 0.022909749888019901
110 103 0.022909749888019901
811 93 0.056270750335940298
70 93 0.045819499776039802
103 93 0.045819499776039802
93 93 0.74584716689062702
520 93 0.037513833557293499
843 93 0.022909749888019901
364 93 0.022909749888019901
110 93 0.022909749888019901
966 119 0.037513833557293499
119 119 0.78536824921613901
39 119 0.037513833557293499
481 119 0.037513833557293499
196 119 0.045819499776039802
961 119 0.018756916778646798
409 119 0.018756916778646701
486 119 0.018756916778646798
672 39 0.037513833557293499
119 39 0.045819499776039802
39 39 0.79997233288541303
25 39 0.018756916778646701
196 39 0.022909749888019901
267 39 0.018756916778646701
636 39 0.018756916778646701
933 39 0.018756916778646701
486 39 0.018756916778646798
501 481 0.037513833557293499
119 481 0.045819499776039802
481 481 0.79997233288541303
25 481 0.018756916778646701
196 481 0.022909749888019901
267 481 0.018756916778646701
961 481 0.018756916778646798
288 481 0.018756916778646701
166 481 0.018756916778646701
505 25 0.037513833557293499
39 25 0.068729249664059799
481 25 0.068729249664059799
25 25 0.73124308322135301
267 25 0.037513833557293499
636 25 0.018756916778646798
112 25 0.018756916778646798
166 25 0.018756916778646798
820 890 0.037513833557293499
890 890 0.73954874944009996
213 890 0.056270750335940298
206 890 0.056270750335940298
627 890 0.045819499776039802
904 890 0.022909749888019901
458 890 0.018756916778646798
747 890 0.022909749888019901
43 213 0.037513833557293499
890 213 0.022909749888019901
213 213 0.79581949977604005
515 213 0.037513833557293499
627 213 0.022909749888019901
230 213 0.018756916778646798
37 213 0.022909749888019901
56 213 0.018756916778646798
747 213 0.022909749888019901
429 206 0.037513833557293499
890 206 0.022909749888019901
206 206 0.79581949977604005
515 206 0.037513833557293499
627 206 0.022909749888019901
230 206 0.018756916778646798
904 206 0.022909749888019901
256 206 0.018756916778646798
82 206 0.022909749888019901
139 515 0.037513833557293499
213 515 0.045819499776039802
206 515 0.045819499776039802
515 515 0.76875691677864699
230 515 0.037513833557293499
37 515 0.022909749888019901
308 515 0.018756916778646798
82 515 0.022909749888019901
47 787 0.037513833557293499
787 787 0.78536824921613901
439 787 0.037513833557293499
744 787 0.037513833557293499
512 787 0.045819499776039802
974 787 0.018756916778646798
229 787 0.018756916778646701
448 787 0.018756916778646798
701 439 0.037513833557293499
787 439 0.045819499776039802
439 439 0.79997233288541303
209 439 0.018756916778646701
512 439 0.022909749888019901
956 439 0.018756916778646701
81 439 0.018756916778646701
981 439 0.018756916778646701
448 439 0.018756916778646798
971 744 0.037513833557293499
787 744 0.045819499776039802
744 744 0.79997233288541303
209 744 0.018756916778646701
512 744 0.022909749888019901
956 744 0.018756916778646701
974 744 0.018756916778646798
225 744 0.018756916778646701
652 744 0.018756916778646701
472 209 0.037513833557293499
439 209 0.068729249664059799
744 209 0.068729249664059799
209 209 0.73124308322135301
956 209 0.037513833557293499
81 209 0.018756916778646798
765 209 0.018756916778646798
652 209 0.018756916778646798
513 136 0.037513833557293499
136 136 0.73954874944009996
84 136 0.056270750335940298
931 136 0.056270750335940298
202 136 0.045819499776039802
433 136 0.022909749888019901
79 136 0.018756916778646701
660 136 0.022909749888019901
984 84 0.037513833557293499
136 84 0.022909749888019901
84 84 0.79581949977604005
42 84 0.037513833557293499
202 84 0.022909749888019901
291 84 0.018756916778646798
848 84 0.022909749888019901
919 84 0.018756916778646798
660 84 0.022909749888019901
887 931 0.037513833557293499
136 931 0.022909749888019901
931 931 0.79581949977604005
42 931 0.037513833557293499
202 931 0.022909749888019901
291 931 0.018756916778646798
433 931 0.022909749888019901
756 931 0.018756916778646798
454 931 0.022909749888019901
115 42 0.037513833557293499
84 42 0.045819499776039802
931 42 0.045819499776039802
42 42 0.76875691677864699
291 42 0.037513833557293499
848 42 0.022909749888019901
840 42 0.018756916778646798
454 42 0.022909749888019901
10 645 0.068729249664059799
975 645 0.037513833557293499
510 645 0.0916389995520797
738 645 0.037513833557293499
1012 645 0.037513833557293499
645 645 0.62084716689062702
394 645 0.045819499776039802
1009 645 0.018756916778646798
365 645 0.022909749888019901
587 645 0.018756916778646798
736 518 0.045819499776039802
305 518 0.056270750335940298
738 518 0.068729249664059799
1012 518 0.068729249664059799
313 518 0.037513833557293499
518 518 0.61669433378125404
728 518 0.045819499776039802
180 518 0.018756916778646798
190 518 0.022909749888019901
151 518 0.018756916778646798
991 450 0.068729249664059799
262 450 0.037513833557293499
236 450 0.045819499776039802
297 450 0.056270750335940298
932 450 0.056270750335940298
450 450 0.62084716689062702
457 450 0.045819499776039802
856 450 0.022909749888019901
216 450 0.022909749888019901
494 450 0.022909749888019901
896 918 0.045819499776039802
608 918 0.056270750335940298
297 918 0.045819499776039802
932 918 0.045819499776039802
64 918 0.075027667114586999
918 918 0.61669433378125404
417 918 0.045819499776039802
265 918 0.022909749888019901
17 918 0.022909749888019901
528 918 0.022909749888019901
925 541 0.068729249664059799
555 541 0.037513833557293499
237 541 0.0916389995520797
776 541 0.037513833557293499
231 541 0.037513833557293499
541 541 0.62084716689062702
860 541 0.045819499776039802
11 541 0.018756916778646798
284 541 0.022909749888019901
847 541 0.018756916778646798
277 220 0.045819499776039802
941 220 0.056270750335940298
776 220 0.068729249664059702
231 220 0.068729249664059702
964 220 0.037513833557293499
220 220 0.61669433378125404
553 220 0.045819499776039802
755 220 0.018756916778646798
808 220 0.022909749888019901
906 220 0.018756916778646798
842 312 0.068729249664059799
525 312 0.037513833557293499
63 312 0.045819499776039802
987 312 0.056270750335940298
376 312 0.056270750335940298
312 312 0.62084716689062702
668 312 0.045819499776039802
8 312 0.022909749888019901
508 312 0.022909749888019901
658 312 0.022909749888019901
819 773 0.045819499776039802
302 773 0.056270750335940298
987 773 0.045819499776039802
376 773 0.045819499776039802
811 773 0.075027667114586999
773 773 0.61669433378125404
520 773 0.045819499776039802
965 773 0.022909749888019901
521 773 0.022909749888019901
857 773 0.022909749888019901
142 246 0.068729249664059799
882 246 0.037513833557293499
966 246 0.0916389995520797
672 246 0.037513833557293499
501 246 0.037513833557293499
246 246 0.60209025011198003
196 246 0.068729249664059799
582 246 0.018756916778646798
544 246 0.018756916778646798
624 246 0.018756916778646798
389 729 0.045819499776039802
700 729 0.056270750335940298
672 729 0.068729249664059702
501 729 0.068729249664059702
505 729 0.037513833557293499
729 729 0.59793741700260705
267 729 0.068729249664059702
250 729 0.018756916778646798
749 729 0.018756916778646798
176 729 0.018756916778646798
1002 752 0.068729249664059799
1015 752 0.037513833557293499
820 752 0.045819499776039802
43 752 0.056270750335940298
429 752 0.056270750335940298
752 752 0.60209025011198003
627 752 0.068729249664059799
812 752 0.022909749888019901
205 752 0.018756916778646798
314 752 0.022909749888019901
549 453 0.045819499776039802
483 453 0.056270750335940298
43 453 0.045819499776039802
429 453 0.045819499776039802
139 453 0.075027667114586999
453 453 0.59793741700260705
230 453 0.068729249664059702
578 453 0.022909749888019901
928 453 0.018756916778646798
692 453 0.022909749888019901
785 232 0.068729249664059799
863 232 0.037513833557293499
47 232 0.0916389995520797
701 232 0.037513833557293499
971 232 0.037513833557293499
232 232 0.60209025011198003
512 232 0.068729249664059799
546 232 0.018756916778646798
616 232 0.018756916778646798
403 232 0.018756916778646798
881 809 0.045819499776039802
380 809 0.056270750335940298
701 809 0.068729249664059702
971 809 0.068729249664059702
472 809 0.037513833557293499
809 809 0.59793741700260705
956 809 0.068729249664059702
648 809 0.018756916778646798
261 809 0.018756916778646798
156 809 0.018756916778646798
735 144 0.068729249664059799
13 144 0.037513833557293499
513 144 0.045819499776039802
984 144 0.056270750335940298
887 144 0.056270750335940298
144 144 0.60209025011198003
202 144 0.068729249664059799
623 144 0.022909749888019901
607 144 0.018756916778646798
934 144 0.022909749888019901
434 254 0.045819499776039802
58 254 0.056270750335940298
984 254 0.045819499776039802
887 254 0.045819499776039802
115 254 0.075027667114586999
254 254 0.59793741700260705
291 254 0.068729249664059799
963 254 0.022909749888019901
753 254 0.018756916778646798
929 254 0.022909749888019901
270 394 0.068729249664059799
760 394 0.037513833557293499
1 394 0.0916389995520797
383 394 0.037513833557293499
286 394 0.037513833557293499
645 394 0.056270750335940298
394 394 0.61039591633072598
499 394 0.018756916778646798
365 394 0.022909749888019901
372 394 0.018756916778646798
709 728 0.045819499776039802
903 728 0.056270750335940298
383 728 0.068729249664059799
286 728 0.068729249664059799
825 728 0.037513833557293499
518 728 0.056270750335940298
728 728 0.60624308322135301
350 728 0.018756916778646798
190 728 0.022909749888019901
504 728 0.018756916778646798
48 457 0.068729249664059702
310 457 0.037513833557293499
535 457 0.045819499776039802
233 457 0.056270750335940298
198 457 0.056270750335940298
450 457 0.056270750335940298
457 457 0.61039591633072598
143 457 0.022909749888019901
216 457 0.022909749888019901
379 457 0.022909749888019901
222 417 0.045819499776039802
401 417 0.056270750335940298
233 417 0.045819499776039802
198 417 0.045819499776039802
61 417 0.075027667114586999
918 417 0.056270750335940298
417 417 0.60624308322135301
995 417 0.022909749888019901
17 417 0.022909749888019901
585 417 0.022909749888019901
83 860 0.068729249664059702
34 860 0.037513833557293499
983 860 0.0916389995520797
399 860 0.037513833557293499
675 860 0.037513833557293499
541 860 0.056270750335940298
860 860 0.61039591633072598
937 860 0.018756916778646798
284 860 0.022909749888019901
1005 860 0.018756916778646798
5 553 0.045819499776039802
240 553 0.056270750335940298
399 553 0.068729249664059799
675 553 0.068729249664059799
562 553 0.037513833557293499
220 553 0.056270750335940298
553 553 0.60624308322135301
1001 553 0.018756916778646798
808 553 0.022909749888019901
358 553 0.018756916778646798
653 668 0.068729249664059702
621 668 0.037513833557293499
806 668 0.045819499776039802
70 668 0.056270750335940298
103 668 0.056270750335940298
312 668 0.056270750335940298
668 668 0.61039591633072598
698 668 0.022909749888019901
508 668 0.022909749888019901
473 668 0.022909749888019901
331 520 0.045819499776039802
873 520 0.056270750335940298
70 520 0.045819499776039802
103 520 0.045819499776039802
93 520 0.075027667114586999
773 520 0.056270750335940298
520 520 0.60624308322135301
843 520 0.022909749888019901
521 520 0.022909749888019901
110 520 0.022909749888019901
783 196 0.068729249664059799
73 196 0.037513833557293499
119 196 0.0916389995520797
39 196 0.037513833557293499
481 196 0.037513833557293499
246 196 0.037513833557293499
196 196 0.63330566621874596
961 196 0.018756916778646798
544 196 0.018756916778646701
486 196 0.018756916778646798
761 267 0.045819499776039802
207 267 0.056270750335940298
39 267 0.068729249664059799
481 267 0.068729249664059799
25 267 0.037513833557293499
729 267 0.037513833557293499
267 267 0.62915283310937298
636 267 0.018756916778646798
749 267 0.018756916778646798
166 267 0.018756916778646798
260 627 0.068729249664059702
68 627 0.037513833557293499
890 627 0.045819499776039802
213 627 0.056270750335940298
206 627 0.056270750335940298
752 627 0.037513833557293499
627 627 0.63330566621874596
904 627 0.022909749888019901
205 627 0.018756916778646798
747 627 0.022909749888019901
296 230 0.045819499776039802
117 230 0.056270750335940298
213 230 0.045819499776039802
206 230 0.045819499776039802
515 230 0.075027667114586999
453 230 0.037513833557293499
230 230 0.62915283310937298
37 230 0.022909749888019901
928 230 0.018756916778646798
82 230 0.022909749888019901
2 512 0.068729249664059799
724 512 0.037513833557293499
787 512 0.0916389995520797
439 512 0.037513833557293499
744 512 0.037513833557293499
232 512 0.037513833557293499
512 512 0.63330566621874596
974 512 0.018756916778646798
616 512 0.018756916778646701
448 512 0.018756916778646798
570 956 0.045819499776039802
179 956 0.056270750335940298
439 956 0.068729249664059799
744 956 0.068729249664059799
209 956 0.037513833557293499
809 956 0.037513833557293499
956 956 0.62915283310937298
81 956 0.018756916778646798
261 956 0.018756916778646798
652 956 0.018756916778646798
628 202 0.068729249664059799
780 202 0.037513833557293499
136 202 0.045819499776039802
84 202 0.056270750335940298
931 202 0.056270750335940298
144 202 0.037513833557293499
202 202 0.63330566621874596
433 202 0.022909749888019901
607 202 0.018756916778646701
660 202 0.022909749888019901
659 291 0.045819499776039802
114 291 0.056270750335940298
84 291 0.045819499776039802
931 291 0.045819499776039802
42 291 0.075027667114586999
254 291 0.037513833557293499
291 291 0.62915283310937298
848 291 0.022909749888019901
753 291 0.018756916778646798
454 291 0.022909749888019901
895 895 0.79581949977604005
715 895 0.037513833557293499
212 895 0.037513833557293499
188 895 0.045819499776039802
1009 895 0.022909749888019901
493 895 0.022909749888019901
404 895 0.018756916778646798
662 895 0.018756916778646798
895 715 0.068729249664059799
715 715 0.76460408366927402
91 715 0.037513833557293499
716 715 0.045819499776039802
180 715 0.022909749888019901
977 715 0.022909749888019901
77 715 0.018756916778646798
662 715 0.018756916778646798
342 342 0.79581949977604005
239 342 0.056270750335940298
244 342 0.018756916778646701
71 342 0.045819499776039802
856 342 0.018756916778646701
435 342 0.022909749888019901
702 342 0.018756916778646701
167 342 0.022909749888019901
342 239 0.045819499776039802
239 239 0.80627075033593998
922 239 0.018756916778646798
46 239 0.045819499776039802
265 239 0.018756916778646798
989 239 0.022909749888019901
865 239 0.018756916778646798
167 239 0.022909749888019901
895 212 0.045819499776039802
212 212 0.78751383355729399
91 212 0.037513833557293499
160 212 0.045819499776039802
1009 212 0.022909749888019901
51 212 0.022909749888019901
404 212 0.018756916778646798
298 212 0.018756916778646798
715 91 0.045819499776039802
212 91 0.068729249664059799
91 91 0.75629841745052695
649 91 0.045819499776039802
180 91 0.022909749888019901
869 91 0.022909749888019901
77 91 0.018756916778646798
298 91 0.018756916778646798
342 244 0.068729249664059799
244 244 0.74584716689062702
922 244 0.056270750335940298
65 244 0.045819499776039802
856 244 0.018756916778646798
259 244 0.022909749888019901
702 244 0.018756916778646798
733 244 0.022909749888019901
239 922 0.068729249664059799
244 922 0.045819499776039802
922 922 0.75629841745052695
927 922 0.045819499776039802
265 922 0.018756916778646798
615 922 0.022909749888019901
865 922 0.018756916778646798
733 922 0.022909749888019901
774 774 0.77290974988801997
18 774 0.037513833557293499
630 774 0.056270750335940298
795 774 0.045819499776039802
11 774 0.022909749888019901
171 774 0.022909749888019901
289 774 0.022909749888019901
639 774 0.018756916778646798
774 18 0.068729249664059702
18 18 0.74169433378125404
475 18 0.056270750335940298
720 18 0.045819499776039802
755 18 0.022909749888019901
571 18 0.022909749888019901
849 18 0.022909749888019901
639 18 0.018756916778646798
23 23 0.77290974988801997
109 23 0.056270750335940298
203 23 0.037513833557293499
507 23 0.045819499776039802
8 23 0.018756916778646798
867 23 0.022909749888019901
105 23 0.022909749888019901
998 23 0.022909749888019901
23 109 0.045819499776039802
109 109 0.78336100044792001
899 109 0.037513833557293499
301 109 0.045819499776039802
965 109 0.018756916778646798
650 109 0.022909749888019901
865 109 0.022909749888019901
998 109 0.022909749888019901
774 630 0.022909749888019901
630 630 0.80627075033593998
475 630 0.037513833557293499
303 630 0.045819499776039802
11 630 0.022909749888019901
124 630 0.022909749888019901
289 630 0.022909749888019901
178 630 0.018756916778646701
18 475 0.022909749888019901
630 475 0.068729249664059799
475 475 0.77505533422917405
172 475 0.045819499776039802
755 475 0.022909749888019901
556 475 0.022909749888019901
849 475 0.022909749888019901
178 475 0.018756916778646798
23 203 0.045819499776039802
203 203 0.76460408366927402
899 203 0.056270750335940298
576 203 0.045819499776039802
8 203 0.018756916778646798
876 203 0.022909749888019901
105 203 0.022909749888019901
462 203 0.022909749888019901
109 899 0.045819499776039802
203 899 0.045819499776039802
899 899 0.77505533422917405
604 899 0.045819499776039802
965 899 0.018756916778646798
75 899 0.022909749888019901
865 899 0.022909749888019901
462 899 0.022909749888019901
561 561 0.77706258299739295
349 561 0.037513833557293499
586 561 0.037513833557293499
420 561 0.068729249664059799
582 561 0.022909749888019901
640 561 0.018756916778646798
612 561 0.018756916778646798
866 561 0.018756916778646798
561 349 0.068729249664059702
349 349 0.74584716689062702
191 349 0.037513833557293499
997 349 0.068729249664059702
250 349 0.022909749888019901
89 349 0.018756916778646798
200 349 0.018756916778646798
866 349 0.018756916778646798
539 539 0.77706258299739295
161 539 0.056270750335940298
279 539 0.018756916778646798
775 539 0.068729249664059702
812 539 0.018756916778646798
86 539 0.018756916778646798
892 539 0.018756916778646798
16 539 0.022909749888019901
539 161 0.045819499776039802
161 161 0.78751383355729399
583 161 0.018756916778646798
943 161 0.068729249664059799
578 161 0.018756916778646798
560 161 0.018756916778646798
849 161 0.018756916778646798
16 161 0.022909749888019901
561 586 0.045819499776039802
586 586 0.76875691677864699
191 586 0.037513833557293499
620 586 0.068729249664059799
582 586 0.022909749888019901
949 586 0.018756916778646798
612 586 0.018756916778646798
183 586 0.018756916778646798
349 191 0.045819499776039802
586 191 0.068729249664059702
191 191 0.73754150067188096
323 191 0.068729249664059702
250 191 0.022909749888019901
430 191 0.018756916778646798
200 191 0.018756916778646798
183 191 0.018756916778646798
539 279 0.068729249664059799
279 279 0.72709025011198003
583 279 0.056270750335940298
480 279 0.068729249664059799
812 279 0.018756916778646798
146 279 0.018756916778646798
892 279 0.018756916778646798
542 279 0.022909749888019901
161 583 0.068729249664059702
279 583 0.045819499776039802
583 583 0.73754150067188096
533 583 0.068729249664059702
578 583 0.018756916778646798
129 583 0.018756916778646798
849 583 0.018756916778646798
542 583 0.022909749888019901
354 354 0.75415283310937298
671 354 0.037513833557293499
564 354 0.056270750335940298
197 354 0.068729249664059799
546 354 0.022909749888019901
800 354 0.018756916778646798
334 354 0.022909749888019901
669 354 0.018756916778646798
354 671 0.068729249664059702
671 671 0.72293741700260705
687 671 0.056270750335940298
54 671 0.068729249664059702
648 671 0.022909749888019901
295 671 0.018756916778646798
200 671 0.022909749888019901
669 671 0.018756916778646798
770 770 0.75415283310937298
566 770 0.056270750335940298
273 770 0.037513833557293499
135 770 0.068729249664059799
623 770 0.018756916778646798
996 770 0.018756916778646798
320 770 0.022909749888019901
69 770 0.022909749888019901
770 566 0.045819499776039802
566 566 0.76460408366927402
322 566 0.037513833557293499
419 566 0.068729249664059799
963 566 0.018756916778646798
248 566 0.018756916778646798
77 566 0.022909749888019901
69 566 0.022909749888019901
354 564 0.022909749888019901
564 564 0.78751383355729299
687 564 0.037513833557293499
816 564 0.068729249664059799
546 564 0.022909749888019901
88 564 0.018756916778646798
334 564 0.022909749888019901
742 564 0.018756916778646701
671 687 0.022909749888019901
564 687 0.068729249664059799
687 687 0.75629841745052695
1000 687 0.068729249664059799
648 687 0.022909749888019901
807 687 0.018756916778646798
200 687 0.022909749888019901
742 687 0.018756916778646798
770 273 0.045819499776039802
273 273 0.74584716689062702
322 273 0.056270750335940298
1014 273 0.068729249664059799
623 273 0.018756916778646798
466 273 0.018756916778646798
320 273 0.022909749888019901
482 273 0.022909749888019901
566 322 0.045819499776039802
273 322 0.045819499776039802
322 322 0.75629841745052695
859 322 0.068729249664059799
963 322 0.018756916778646798
763 322 0.018756916778646798
77 322 0.022909749888019901
482 322 0.022909749888019901
895 188 0.056270750335940298
188 188 0.78536824921613901
716 188 0.037513833557293499
160 188 0.037513833557293499
499 188 0.022909749888019901
493 188 0.022909749888019901
939 188 0.018756916778646798
980 188 0.018756916778646701
715 716 0.056270750335940298
188 716 0.068729249664059799
716 716 0.75415283310937298
649 716 0.037513833557293499
350 716 0.022909749888019901
977 716 0.022909749888019901
320 716 0.018756916778646798
980 716 0.018756916778646798
342 71 0.056270750335940298
71 71 0.78536824921613901
46 71 0.056270750335940298
65 71 0.018756916778646798
143 71 0.018756916778646798
435 71 0.022909749888019901
594 71 0.018756916778646798
347 71 0.022909749888019901
239 46 0.056270750335940298
71 46 0.045819499776039802
46 46 0.79581949977604005
927 46 0.018756916778646701
995 46 0.018756916778646701
989 46 0.022909749888019901
105 46 0.018756916778646701
347 46 0.022909749888019901
212 160 0.056270750335940298
188 160 0.045819499776039802
160 160 0.77706258299739295
649 160 0.037513833557293499
499 160 0.022909749888019901
51 160 0.022909749888019901
939 160 0.018756916778646798
422 160 0.018756916778646701
91 649 0.056270750335940298
716 649 0.045819499776039802
160 649 0.068729249664059799
649 649 0.74584716689062702
350 649 0.022909749888019901
869 649 0.022909749888019901
320 649 0.018756916778646798
422 649 0.018756916778646798
244 65 0.056270750335940298
71 65 0.068729249664059702
65 65 0.73539591633072598
927 65 0.056270750335940298
143 65 0.018756916778646798
259 65 0.022909749888019901
594 65 0.018756916778646798
1006 65 0.022909749888019901
922 927 0.056270750335940298
46 927 0.068729249664059799
65 927 0.045819499776039802
927 927 0.74584716689062702
995 927 0.018756916778646798
615 927 0.022909749888019901
105 927 0.018756916778646798
1006 927 0.022909749888019901
774 795 0.056270750335940298
795 795 0.76245849932811904
720 795 0.037513833557293499
303 795 0.056270750335940298
937 795 0.022909749888019901
171 795 0.022909749888019901
580 795 0.022909749888019901
878 795 0.018756916778646798
18 720 0.056270750335940298
795 720 0.068729249664059799
720 720 0.73124308322135301
172 720 0.056270750335940298
1001 720 0.022909749888019901
571 720 0.022909749888019901
892 720 0.022909749888019901
878 720 0.018756916778646798
23 507 0.056270750335940298
507 507 0.76245849932811904
301 507 0.056270750335940298
576 507 0.037513833557293499
698 507 0.018756916778646798
867 507 0.022909749888019901
594 507 0.022909749888019901
274 507 0.022909749888019901
109 301 0.056270750335940298
507 301 0.045819499776039802
301 301 0.77290974988801997
604 301 0.037513833557293499
843 301 0.018756916778646798
650 301 0.022909749888019901
702 301 0.022909749888019901
274 301 0.022909749888019901
630 303 0.056270750335940298
795 303 0.022909749888019901
303 303 0.79581949977604005
172 303 0.037513833557293499
937 303 0.022909749888019901
124 303 0.022909749888019901
580 303 0.022909749888019901
804 303 0.018756916778646798
475 172 0.056270750335940298
720 172 0.022909749888019901
303 172 0.068729249664059702
172 172 0.76460408366927402
1001 172 0.022909749888019901
556 172 0.022909749888019901
892 172 0.022909749888019901
804 172 0.018756916778646798
203 576 0.056270750335940298
507 576 0.045819499776039802
576 576 0.75415283310937298
604 576 0.056270750335940298
698 576 0.018756916778646798
876 576 0.022909749888019901
594 576 0.022909749888019901
891 576 0.022909749888019901
899 604 0.056270750335940298
301 604 0.045819499776039802
576 604 0.045819499776039802
604 604 0.76460408366927402
843 604 0.018756916778646798
75 604 0.022909749888019901
702 604 0.022909749888019901
891 604 0.022909749888019901
561 420 0.037513833557293499
420 420 0.80827799910415898
997 420 0.037513833557293499
620 420 0.037513833557293499
961 420 0.022909749888019901
640 420 0.018756916778646701
352 420 0.018756916778646798
368 420 0.018756916778646701
349 997 0.037513833557293499
420 997 0.068729249664059799
997 997 0.77706258299739295
323 997 0.037513833557293499
636 997 0.022909749888019901
89 997 0.018756916778646798
334 997 0.018756916778646798
368 997 0.018756916778646798
539 775 0.037513833557293499
775 775 0.80827799910415898
943 775 0.056270750335940298
480 775 0.018756916778646798
904 775 0.018756916778646798
86 775 0.018756916778646798
580 775 0.018756916778646798
80 775 0.022909749888019901
161 943 0.037513833557293499
775 943 0.045819499776039802
943 943 0.81872924966406002
533 943 0.018756916778646701
37 943 0.018756916778646701
560 943 0.018756916778646701
289 943 0.018756916778646701
80 943 0.022909749888019901
586 620 0.037513833557293499
420 620 0.045819499776039802
620 620 0.79997233288541303
323 620 0.037513833557293499
961 620 0.022909749888019901
949 620 0.018756916778646701
352 620 0.018756916778646798
108 620 0.018756916778646701
191 323 0.037513833557293499
997 323 0.045819499776039802
620 323 0.068729249664059799
323 323 0.76875691677864699
636 323 0.022909749888019901
430 323 0.018756916778646798
334 323 0.018756916778646798
108 323 0.018756916778646798
279 480 0.037513833557293499
775 480 0.068729249664059702
480 480 0.75830566621874596
533 480 0.056270750335940298
904 480 0.018756916778646798
146 480 0.018756916778646798
580 480 0.018756916778646798
210 480 0.022909749888019901
583 533 0.037513833557293499
943 533 0.068729249664059799
480 533 0.045819499776039802
533 533 0.76875691677864699
37 533 0.018756916778646798
129 533 0.018756916778646798
289 533 0.018756916778646798
210 533 0.022909749888019901
354 197 0.037513833557293499
197 197 0.78536824921613901
54 197 0.037513833557293499
816 197 0.056270750335940298
974 197 0.022909749888019901
800 197 0.018756916778646701
352 197 0.022909749888019901
31 197 0.018756916778646701
671 54 0.037513833557293499
197 54 0.068729249664059799
54 54 0.75415283310937298
1000 54 0.056270750335940298
81 54 0.022909749888019901
295 54 0.018756916778646798
612 54 0.022909749888019901
31 54 0.018756916778646798
770 135 0.037513833557293499
135 135 0.78536824921613901
419 135 0.056270750335940298
1014 135 0.037513833557293499
433 135 0.018756916778646798
996 135 0.018756916778646701
939 135 0.022909749888019901
548 135 0.022909749888019901
566 419 0.037513833557293499
135 419 0.045819499776039802
419 419 0.79581949977604005
859 419 0.037513833557293499
848 419 0.018756916778646798
248 419 0.018756916778646798
404 419 0.022909749888019901
548 419 0.022909749888019901
564 816 0.037513833557293499
197 816 0.022909749888019901
816 816 0.81872924966406002
1000 816 0.037513833557293499
974 816 0.022909749888019901
88 816 0.018756916778646798
352 816 0.022909749888019901
424 816 0.018756916778646798
687 1000 0.037513833557293499
54 1000 0.022909749888019901
816 1000 0.068729249664059799
1000 1000 0.78751383355729299
81 1000 0.022909749888019901
807 1000 0.018756916778646701
612 1000 0.022909749888019901
424 1000 0.018756916778646798
273 1014 0.037513833557293499
135 1014 0.045819499776039802
1014 1014 0.77706258299739295
859 1014 0.056270750335940298
433 1014 0.018756916778646798
466 1014 0.018756916778646701
939 1014 0.022909749888019901
954 1014 0.022909749888019901
322 859 0.037513833557293499
419 859 0.045819499776039802
1014 859 0.045819499776039802
859 859 0.78751383355729399
848 859 0.018756916778646798
763 859 0.018756916778646798
404 859 0.022909749888019901
954 859 0.022909749888019901
510 1009 0.045819499776039802
1012 1009 0.037513833557293499
645 1009 0.022909749888019901
895 1009 0.045819499776039802
212 1009 0.037513833557293499
1009 1009 0.66666666666666696
180 1009 0.037513833557293499
499 1009 0.045819499776039802
404 1009 0.018756916778646798
335 1009 0.022909749888019901
266 1009 0.018756916778646798
738 180 0.068729249664059799
313 180 0.018756916778646798
518 180 0.018756916778646798
715 180 0.045819499776039802
91 180 0.037513833557293499
1009 180 0.068729249664059799
180 180 0.63545125055990004
350 180 0.045819499776039802
77 180 0.018756916778646798
531 180 0.022909749888019901
266 180 0.018756916778646798
236 856 0.022909749888019901
932 856 0.056270750335940298
450 856 0.022909749888019901
342 856 0.068729249664059799
244 856 0.018756916778646798
856 856 0.64375691677864699
265 856 0.056270750335940298
143 856 0.045819499776039802
702 856 0.018756916778646798
152 856 0.022909749888019901
182 856 0.022909749888019901
297 265 0.045819499776039802
64 265 0.037513833557293499
918 265 0.018756916778646798
239 265 0.068729249664059799
922 265 0.018756916778646798
856 265 0.045819499776039802
265 265 0.65420816733854703
995 265 0.045819499776039802
865 265 0.018756916778646798
791 265 0.022909749888019901
182 265 0.022909749888019901
237 11 0.045819499776039802
231 11 0.037513833557293499
541 11 0.022909749888019901
774 11 0.022909749888019901
630 11 0.056270750335940298
11 11 0.66666666666666696
755 11 0.037513833557293499
937 11 0.045819499776039802
289 11 0.022909749888019901
355 11 0.022909749888019901
113 11 0.018756916778646798
776 755 0.068729249664059702
964 755 0.018756916778646798
220 755 0.018756916778646798
18 755 0.022909749888019901
475 755 0.056270750335940298
11 755 0.068729249664059702
755 755 0.63545125055990004
1001 755 0.045819499776039802
849 755 0.022909749888019901
340 755 0.022909749888019901
113 755 0.018756916778646798
63 8 0.022909749888019901
376 8 0.056270750335940298
312 8 0.022909749888019901
23 8 0.045819499776039802
203 8 0.037513833557293499
8 8 0.64375691677864699
965 8 0.056270750335940298
698 8 0.045819499776039802
105 8 0.022909749888019901
705 8 0.022909749888019901
802 8 0.022909749888019901
987 965 0.045819499776039802
811 965 0.037513833557293499
773 965 0.018756916778646798
109 965 0.045819499776039802
899 965 0.037513833557293499
8 965 0.045819499776039802
965 965 0.65420816733854703
843 965 0.045819499776039802
865 965 0.022909749888019901
181 965 0.022909749888019901
802 965 0.022909749888019901
966 582 0.045819499776039802
501 582 0.037513833557293499
246 582 0.022909749888019901
561 582 0.045819499776039802
586 582 0.037513833557293499
582 582 0.64790974988801997
250 582 0.037513833557293499
961 582 0.068729249664059799
612 582 0.018756916778646798
696 582 0.018756916778646798
731 582 0.018756916778646798
672 250 0.068729249664059702
505 250 0.018756916778646798
729 250 0.018756916778646798
349 250 0.045819499776039802
191 250 0.037513833557293499
582 250 0.068729249664059702
250 250 0.61669433378125404
636 250 0.068729249664059702
200 250 0.018756916778646798
905 250 0.018756916778646798
731 250 0.018756916778646798
820 812 0.022909749888019901
429 812 0.056270750335940298
752 812 0.022909749888019901
539 812 0.068729249664059799
279 812 0.018756916778646798
812 812 0.625
578 812 0.056270750335940298
904 812 0.068729249664059799
892 812 0.018756916778646798
641 812 0.018756916778646798
359 812 0.022909749888019901
43 578 0.045819499776039802
139 578 0.037513833557293499
453 578 0.018756916778646798
161 578 0.068729249664059702
583 578 0.018756916778646798
812 578 0.045819499776039802
578 578 0.63545125055990004
37 578 0.068729249664059702
849 578 0.018756916778646798
530 578 0.018756916778646798
359 578 0.022909749888019901
47 546 0.045819499776039802
971 546 0.037513833557293499
232 546 0.022909749888019901
354 546 0.022909749888019901
564 546 0.056270750335940298
546 546 0.64790974988801997
648 546 0.037513833557293499
974 546 0.068729249664059799
334 546 0.022909749888019901
66 546 0.018756916778646798
395 546 0.018756916778646798
701 648 0.068729249664059702
472 648 0.018756916778646798
809 648 0.018756916778646798
671 648 0.022909749888019901
687 648 0.056270750335940298
546 648 0.068729249664059702
648 648 0.61669433378125404
81 648 0.068729249664059702
200 648 0.022909749888019901
718 648 0.018756916778646798
395 648 0.018756916778646798
513 623 0.022909749888019901
887 623 0.056270750335940298
144 623 0.022909749888019901
770 623 0.045819499776039802
273 623 0.037513833557293499
623 623 0.625
963 623 0.056270750335940298
433 623 0.068729249664059799
320 623 0.022909749888019901
944 623 0.018756916778646798
9 623 0.022909749888019901
984 963 0.045819499776039802
115 963 0.037513833557293499
254 963 0.018756916778646798
566 963 0.045819499776039802
322 963 0.037513833557293499
623 963 0.045819499776039802
963 963 0.63545125055990004
848 963 0.068729249664059799
77 963 0.022909749888019901
62 963 0.018756916778646798
9 963 0.022909749888019901
1 499 0.045819499776039802
286 499 0.037513833557293499
394 499 0.022909749888019901
188 499 0.045819499776039802
160 499 0.037513833557293499
1009 499 0.056270750335940298
499 499 0.65621541610676604
350 499 0.037513833557293499
939 499 0.018756916778646798
335 499 0.022909749888019901
503 499 0.018756916778646701
383 350 0.068729249664059799
825 350 0.018756916778646798
728 350 0.018756916778646798
716 350 0.045819499776039802
649 350 0.037513833557293499
180 350 0.056270750335940298
499 350 0.068729249664059799
350 350 0.625
320 350 0.018756916778646798
531 350 0.022909749888019901
503 350 0.018756916778646798
535 143 0.022909749888019901
198 143 0.056270750335940298
457 143 0.022909749888019901
71 143 0.068729249664059702
65 143 0.018756916778646798
856 143 0.056270750335940298
143 143 0.63330566621874596
995 143 0.056270750335940298
594 143 0.018756916778646798
152 143 0.022909749888019901
165 143 0.022909749888019901
233 995 0.045819499776039802
61 995 0.037513833557293499
417 995 0.018756916778646798
46 995 0.068729249664059799
927 995 0.018756916778646798
265 995 0.056270750335940298
143 995 0.045819499776039802
995 995 0.64375691677864699
105 995 0.018756916778646798
791 995 0.022909749888019901
165 995 0.022909749888019901
983 937 0.045819499776039802
675 937 0.037513833557293499
860 937 0.022909749888019901
795 937 0.022909749888019901
303 937 0.056270750335940298
11 937 0.056270750335940298
937 937 0.65621541610676604
1001 937 0.037513833557293499
580 937 0.022909749888019901
355 937 0.022909749888019901
784 937 0.018756916778646798
399 1001 0.068729249664059799
562 1001 0.018756916778646798
553 1001 0.018756916778646798
720 1001 0.022909749888019901
172 1001 0.056270750335940298
755 1001 0.056270750335940298
937 1001 0.068729249664059799
1001 1001 0.625
892 1001 0.022909749888019901
340 1001 0.022909749888019901
784 1001 0.018756916778646798
806 698 0.022909749888019901
103 698 0.056270750335940298
668 698 0.022909749888019901
507 698 0.045819499776039802
576 698 0.037513833557293499
8 698 0.056270750335940298
698 698 0.63330566621874596
843 698 0.056270750335940298
594 698 0.022909749888019901
705 698 0.022909749888019901
846 698 0.022909749888019901
70 843 0.045819499776039802
93 843 0.037513833557293499
520 843 0.018756916778646798
301 843 0.045819499776039802
604 843 0.037513833557293499
965 843 0.056270750335940298
698 843 0.045819499776039802
843 843 0.64375691677864699
702 843 0.022909749888019901
181 843 0.022909749888019901
846 843 0.022909749888019901
119 961 0.045819499776039802
481 961 0.037513833557293499
196 961 0.022909749888019901
420 961 0.045819499776039802
620 961 0.037513833557293499
582 961 0.037513833557293499
961 961 0.67912516599478601
636 961 0.037513833557293499
352 961 0.018756916778646798
696 961 0.018756916778646701
814 961 0.018756916778646701
39 636 0.068729249664059799
25 636 0.018756916778646798
267 636 0.018756916778646798
997 636 0.045819499776039802
323 636 0.037513833557293499
250 636 0.037513833557293499
961 636 0.068729249664059799
636 636 0.64790974988801997
334 636 0.018756916778646798
905 636 0.018756916778646798
814 636 0.018756916778646798
890 904 0.022909749888019901
206 904 0.056270750335940298
627 904 0.022909749888019901
775 904 0.068729249664059702
480 904 0.018756916778646798
812 904 0.037513833557293499
904 904 0.65621541610676604
37 904 0.056270750335940298
580 904 0.018756916778646798
641 904 0.018756916778646798
611 904 0.022909749888019901
213 37 0.045819499776039802
515 37 0.037513833557293499
230 37 0.018756916778646798
943 37 0.068729249664059799
533 37 0.018756916778646798
578 37 0.037513833557293499
904 37 0.045819499776039802
37 37 0.66666666666666696
289 37 0.018756916778646798
530 37 0.018756916778646798
611 37 0.022909749888019901
787 974 0.045819499776039802
744 974 0.037513833557293499
512 974 0.022909749888019901
197 974 0.022909749888019901
816 974 0.056270750335940298
546 974 0.037513833557293499
974 974 0.67912516599478601
81 974 0.037513833557293499
352 974 0.022909749888019901
66 974 0.018756916778646701
95 974 0.018756916778646701
439 81 0.068729249664059799
209 81 0.018756916778646798
956 81 0.018756916778646798
54 81 0.022909749888019901
1000 81 0.056270750335940298
648 81 0.037513833557293499
974 81 0.068729249664059799
81 81 0.64790974988801997
612 81 0.022909749888019901
718 81 0.018756916778646798
95 81 0.018756916778646798
136 433 0.022909749888019901
931 433 0.056270750335940298
202 433 0.022909749888019901
135 433 0.045819499776039802
1014 433 0.037513833557293499
623 433 0.037513833557293499
433 433 0.65621541610676604
848 433 0.056270750335940298
939 433 0.022909749888019901
944 433 0.018756916778646701
52 433 0.022909749888019901
84 848 0.045819499776039802
42 848 0.037513833557293499
291 848 0.018756916778646798
419 848 0.045819499776039802
859 848 0.037513833557293499
963 848 0.037513833557293499
433 848 0.045819499776039802
848 848 0.66666666666666696
404 848 0.022909749888019901
62 848 0.018756916778646798
52 848 0.022909749888019901
566 248 0.037513833557293499
419 248 0.068729249664059799
248 248 0.68957641655468604
650 248 0.037513833557293499
763 248 0.037513833557293499
996 248 0.045819499776039802
62 248 0.018756916778646798
762 248 0.022909749888019901
460 248 0.022909749888019901
405 248 0.018756916778646701
109 650 0.056270750335940298
301 650 0.045819499776039802
248 650 0.068729249664059799
650 650 0.66251383355729299
75 650 0.037513833557293499
867 650 0.045819499776039802
181 650 0.018756916778646798
85 650 0.022909749888019901
147 650 0.022909749888019901
405 650 0.018756916778646798
161 560 0.037513833557293499
943 560 0.068729249664059799
560 560 0.68957641655468604
989 560 0.056270750335940298
129 560 0.018756916778646798
86 560 0.045819499776039802
530 560 0.018756916778646798
967 560 0.018756916778646798
326 560 0.022909749888019901
20 560 0.022909749888019901
239 989 0.056270750335940298
46 989 0.045819499776039802
560 989 0.045819499776039802
989 989 0.70418050022395995
615 989 0.018756916778646701
435 989 0.045819499776039802
791 989 0.018756916778646701
602 989 0.018756916778646701
746 989 0.022909749888019901
20 989 0.022909749888019901
322 763 0.037513833557293499
859 763 0.068729249664059799
248 763 0.045819499776039802
763 763 0.68127075033593998
75 763 0.037513833557293499
466 763 0.045819499776039802
62 763 0.018756916778646798
762 763 0.022909749888019901
476 763 0.022909749888019901
253 763 0.018756916778646701
899 75 0.056270750335940298
604 75 0.045819499776039802
650 75 0.045819499776039802
763 75 0.068729249664059799
75 75 0.65420816733854703
876 75 0.045819499776039802
181 75 0.018756916778646798
85 75 0.022909749888019901
384 75 0.022909749888019901
253 75 0.018756916778646798
583 129 0.037513833557293499
533 129 0.068729249664059702
560 129 0.068729249664059702
129 129 0.63960408366927402
615 129 0.056270750335940298
146 129 0.045819499776039802
530 129 0.018756916778646798
967 129 0.018756916778646798
917 129 0.022909749888019901
626 129 0.022909749888019901
922 615 0.056270750335940298
927 615 0.045819499776039802
989 615 0.068729249664059799
129 615 0.045819499776039802
615 615 0.65420816733854703
259 615 0.045819499776039802
791 615 0.018756916778646798
602 615 0.018756916778646798
215 615 0.022909749888019901
626 615 0.022909749888019901
671 295 0.037513833557293499
54 295 0.068729249664059702
295 295 0.64790974988801997
571 295 0.037513833557293499
807 295 0.056270750335940298
800 295 0.068729249664059702
718 295 0.022909749888019901
678 295 0.022909749888019901
381 295 0.018756916778646798
141 295 0.018756916778646798
18 571 0.056270750335940298
720 571 0.045819499776039802
295 571 0.068729249664059799
571 571 0.62084716689062702
556 571 0.056270750335940298
171 571 0.068729249664059799
340 571 0.022909749888019901
154 571 0.022909749888019901
157 571 0.018756916778646798
141 571 0.018756916778646798
349 89 0.037513833557293499
997 89 0.068729249664059702
89 89 0.64790974988801997
977 89 0.056270750335940298
430 89 0.037513833557293499
640 89 0.068729249664059702
905 89 0.022909749888019901
72 89 0.018756916778646798
169 89 0.018756916778646798
536 89 0.022909749888019901
715 977 0.056270750335940298
716 977 0.045819499776039802
89 977 0.045819499776039802
977 977 0.66251383355729299
869 977 0.037513833557293499
493 977 0.068729249664059799
531 977 0.022909749888019901
968 977 0.018756916778646798
497 977 0.018756916778646798
536 977 0.022909749888019901
687 807 0.037513833557293499
1000 807 0.068729249664059799
295 807 0.022909749888019901
807 807 0.68127075033593998
556 807 0.037513833557293499
88 807 0.068729249664059799
718 807 0.022909749888019901
678 807 0.022909749888019901
942 807 0.018756916778646798
643 807 0.018756916778646798
475 556 0.056270750335940298
172 556 0.045819499776039802
571 556 0.022909749888019901
807 556 0.068729249664059702
556 556 0.65420816733854703
124 556 0.068729249664059702
340 556 0.022909749888019901
154 556 0.022909749888019901
622 556 0.018756916778646798
643 556 0.018756916778646798
191 430 0.037513833557293499
323 430 0.068729249664059702
89 430 0.045819499776039802
430 430 0.63960408366927402
869 430 0.056270750335940298
949 430 0.068729249664059702
905 430 0.022909749888019901
72 430 0.018756916778646798
751 430 0.018756916778646798
801 430 0.022909749888019901
91 869 0.056270750335940298
649 869 0.045819499776039802
977 869 0.045819499776039802
430 869 0.045819499776039802
869 869 0.65420816733854703
51 869 0.068729249664059799
531 869 0.022909749888019901
968 869 0.018756916778646798
654 869 0.018756916778646798
801 869 0.022909749888019901
770 996 0.037513833557293499
135 996 0.068729249664059799
248 996 0.056270750335940298
996 996 0.67912516599478601
867 996 0.037513833557293499
466 996 0.037513833557293499
944 996 0.018756916778646798
307 996 0.022909749888019901
460 996 0.022909749888019901
592 996 0.018756916778646798
23 867 0.056270750335940298
507 867 0.045819499776039802
650 867 0.056270750335940298
996 867 0.068729249664059702
867 867 0.65206258299739295
876 867 0.037513833557293499
705 867 0.018756916778646798
120 867 0.022909749888019901
147 867 0.022909749888019901
592 867 0.018756916778646798
539 86 0.037513833557293499
775 86 0.068729249664059702
560 86 0.056270750335940298
86 86 0.67912516599478601
435 86 0.056270750335940298
146 86 0.018756916778646798
641 86 0.018756916778646798
234 86 0.018756916778646798
326 86 0.022909749888019901
374 86 0.022909749888019901
342 435 0.056270750335940298
71 435 0.045819499776039802
989 435 0.056270750335940298
86 435 0.045819499776039802
435 435 0.69372924966406002
259 435 0.018756916778646798
152 435 0.018756916778646798
732 435 0.018756916778646798
746 435 0.022909749888019901
374 435 0.022909749888019901
273 466 0.037513833557293499
1014 466 0.068729249664059799
763 466 0.056270750335940298
996 466 0.045819499776039802
466 466 0.67081949977604005
876 466 0.037513833557293499
944 466 0.018756916778646798
307 466 0.022909749888019901
476 466 0.022909749888019901
371 466 0.018756916778646798
203 876 0.056270750335940298
576 876 0.045819499776039802
75 876 0.056270750335940298
867 876 0.045819499776039802
466 876 0.068729249664059702
876 876 0.64375691677864699
705 876 0.018756916778646798
120 876 0.022909749888019901
384 876 0.022909749888019901
371 876 0.018756916778646798
279 146 0.037513833557293499
480 146 0.068729249664059799
129 146 0.056270750335940298
86 146 0.068729249664059799
146 146 0.62915283310937298
259 146 0.056270750335940298
641 146 0.018756916778646798
234 146 0.018756916778646798
917 146 0.022909749888019901
412 146 0.022909749888019901
244 259 0.056270750335940298
65 259 0.045819499776039802
615 259 0.056270750335940298
435 259 0.068729249664059702
146 259 0.045819499776039802
259 259 0.64375691677864699
152 259 0.018756916778646798
732 259 0.018756916778646798
215 259 0.022909749888019901
412 259 0.022909749888019901
354 800 0.037513833557293499
197 800 0.068729249664059799
295 800 0.037513833557293499
800 800 0.67912516599478601
171 800 0.037513833557293499
88 800 0.056270750335940298
66 800 0.022909749888019901
304 800 0.022909749888019901
381 800 0.018756916778646798
638 800 0.018756916778646798
774 171 0.056270750335940298
795 171 0.045819499776039802
571 171 0.037513833557293499
800 171 0.068729249664059702
171 171 0.65206258299739295
124 171 0.056270750335940298
355 171 0.022909749888019901
597 171 0.022909749888019901
157 171 0.018756916778646798
638 171 0.018756916778646798
561 640 0.037513833557293499
420 640 0.068729249664059799
89 640 0.037513833557293499
640 640 0.67912516599478601
493 640 0.056270750335940298
949 640 0.037513833557293499
696 640 0.022909749888019901
606 640 0.018756916778646798
169 640 0.018756916778646798
373 640 0.022909749888019901
895 493 0.056270750335940298
188 493 0.045819499776039802
977 493 0.037513833557293499
640 493 0.045819499776039802
493 493 0.69372924966406002
51 493 0.037513833557293499
335 493 0.022909749888019901
588 493 0.018756916778646798
497 493 0.018756916778646701
373 493 0.022909749888019901
564 88 0.037513833557293499
816 88 0.068729249664059799
807 88 0.037513833557293499
800 88 0.022909749888019901
88 88 0.71248616644270601
124 88 0.037513833557293499
66 88 0.022909749888019901
304 88 0.022909749888019901
942 88 0.018756916778646701
27 88 0.018756916778646701
630 124 0.056270750335940298
303 124 0.045819499776039802
556 124 0.037513833557293499
171 124 0.022909749888019901
88 124 0.068729249664059799
124 124 0.68542358344531296
355 124 0.022909749888019901
597 124 0.022909749888019901
622 124 0.018756916778646798
27 124 0.018756916778646798
586 949 0.037513833557293499
620 949 0.068729249664059799
430 949 0.037513833557293499
640 949 0.045819499776039802
949 949 0.67081949977604005
51 949 0.056270750335940298
696 949 0.022909749888019901
606 949 0.018756916778646798
751 949 0.018756916778646798
680 949 0.022909749888019901
212 51 0.056270750335940298
160 51 0.045819499776039802
869 51 0.037513833557293499
493 51 0.045819499776039802
949 51 0.045819499776039802
51 51 0.68542358344531296
335 51 0.022909749888019901
588 51 0.018756916778646798
654 51 0.018756916778646701
680 51 0.022909749888019901
895 404 0.045819499776039802
212 404 0.037513833557293499
419 404 0.045819499776039802
859 404 0.037513833557293499
1009 404 0.022909749888019901
848 404 0.018756916778646798
404 404 0.66666666666666696
77 404 0.037513833557293499
939 404 0.045819499776039802
762 404 0.018756916778646798
588 404 0.022909749888019901
715 77 0.045819499776039802
91 77 0.037513833557293499
566 77 0.045819499776039802
322 77 0.037513833557293499
180 77 0.022909749888019901
963 77 0.018756916778646798
404 77 0.068729249664059799
77 77 0.63545125055990004
320 77 0.045819499776039802
762 77 0.018756916778646798
968 77 0.022909749888019901
342 702 0.068729249664059799
244 702 0.018756916778646798
301 702 0.045819499776039802
604 702 0.037513833557293499
856 702 0.018756916778646798
843 702 0.018756916778646798
702 702 0.64375691677864699
865 702 0.056270750335940298
594 702 0.045819499776039802
85 702 0.022909749888019901
732 702 0.022909749888019901
239 865 0.068729249664059799
922 865 0.018756916778646798
109 865 0.045819499776039802
899 865 0.037513833557293499
265 865 0.018756916778646798
965 865 0.018756916778646798
702 865 0.045819499776039802
865 865 0.65420816733854703
105 865 0.045819499776039802
85 865 0.022909749888019901
602 865 0.022909749888019901
774 289 0.022909749888019901
630 289 0.056270750335940298
943 289 0.068729249664059799
533 289 0.018756916778646798
11 289 0.022909749888019901
37 289 0.018756916778646798
289 289 0.66666666666666696
849 289 0.037513833557293499
580 289 0.045819499776039802
967 289 0.018756916778646798
597 289 0.022909749888019901
18 849 0.022909749888019901
475 849 0.056270750335940298
161 849 0.068729249664059702
583 849 0.018756916778646798
755 849 0.022909749888019901
578 849 0.018756916778646798
289 849 0.068729249664059702
849 849 0.63545125055990004
892 849 0.045819499776039802
967 849 0.018756916778646798
154 849 0.022909749888019901
23 105 0.045819499776039802
203 105 0.037513833557293499
46 105 0.068729249664059799
927 105 0.018756916778646798
8 105 0.018756916778646798
995 105 0.018756916778646798
865 105 0.056270750335940298
105 105 0.64375691677864699
594 105 0.045819499776039802
602 105 0.022909749888019901
120 105 0.022909749888019901
561 612 0.045819499776039802
586 612 0.037513833557293499
54 612 0.022909749888019901
1000 612 0.056270750335940298
582 612 0.022909749888019901
81 612 0.022909749888019901
612 612 0.64790974988801997
200 612 0.037513833557293499
352 612 0.068729249664059799
678 612 0.018756916778646798
606 612 0.018756916778646798
349 200 0.045819499776039802
191 200 0.037513833557293499
671 200 0.022909749888019901
687 200 0.056270750335940298
250 200 0.022909749888019901
648 200 0.022909749888019901
612 200 0.068729249664059702
200 200 0.61669433378125404
334 200 0.068729249664059702
678 200 0.018756916778646798
72 200 0.018756916778646798
539 892 0.068729249664059799
279 892 0.018756916778646798
720 892 0.022909749888019901
172 892 0.056270750335940298
812 892 0.018756916778646798
1001 892 0.022909749888019901
849 892 0.056270750335940298
892 892 0.625
580 892 0.068729249664059799
154 892 0.022909749888019901
234 892 0.018756916778646798
354 334 0.022909749888019901
564 334 0.056270750335940298
997 334 0.045819499776039802
323 334 0.037513833557293499
546 334 0.022909749888019901
636 334 0.022909749888019901
200 334 0.037513833557293499
334 334 0.64790974988801997
352 334 0.068729249664059799
72 334 0.018756916778646798
304 334 0.018756916778646798
770 320 0.045819499776039802
273 320 0.037513833557293499
716 320 0.045819499776039802
649 320 0.037513833557293499
623 320 0.018756916778646798
350 320 0.022909749888019901
77 320 0.056270750335940298
320 320 0.625
939 320 0.068729249664059799
968 320 0.022909749888019901
307 320 0.018756916778646798
188 939 0.045819499776039802
160 939 0.037513833557293499
135 939 0.045819499776039802
1014 939 0.037513833557293499
499 939 0.022909749888019901
433 939 0.018756916778646798
404 939 0.056270750335940298
320 939 0.037513833557293499
939 939 0.65621541610676604
307 939 0.018756916778646701
588 939 0.022909749888019901
71 594 0.068729249664059702
65 594 0.018756916778646798
507 594 0.045819499776039802
576 594 0.037513833557293499
143 594 0.018756916778646798
698 594 0.018756916778646798
702 594 0.056270750335940298
105 594 0.056270750335940298
594 594 0.63330566621874596
120 594 0.022909749888019901
732 594 0.022909749888019901
795 580 0.022909749888019901
303 580 0.056270750335940298
775 580 0.068729249664059702
480 580 0.018756916778646798
937 580 0.022909749888019901
904 580 0.018756916778646798
289 580 0.056270750335940298
892 580 0.037513833557293499
580 580 0.65621541610676604
234 580 0.018756916778646798
597 580 0.022909749888019901
420 352 0.045819499776039802
620 352 0.037513833557293499
197 352 0.022909749888019901
816 352 0.056270750335940298
961 352 0.022909749888019901
974 352 0.022909749888019901
612 352 0.037513833557293499
334 352 0.037513833557293499
352 352 0.67912516599478601
304 352 0.018756916778646701
606 352 0.018756916778646701
984 919 0.037513833557293499
84 919 0.068729249664059799
919 919 0.68957641655468604
282 919 0.037513833557293499
840 919 0.037513833557293499
79 919 0.022909749888019901
855 919 0.018756916778646701
62 919 0.022909749888019901
607 919 0.022909749888019901
753 919 0.018756916778646798
994 919 0.022909749888019901
987 282 0.056270750335940298
70 282 0.045819499776039802
919 282 0.068729249664059799
282 282 0.66251383355729299
364 282 0.037513833557293499
868 282 0.022909749888019901
855 282 0.018756916778646798
181 282 0.022909749888019901
508 282 0.022909749888019901
521 282 0.018756916778646798
168 282 0.022909749888019901
43 56 0.037513833557293499
213 56 0.068729249664059702
56 56 0.66666666666666696
127 56 0.056270750335940298
308 56 0.037513833557293499
458 56 0.022909749888019901
884 56 0.022909749888019901
530 56 0.022909749888019901
205 56 0.022909749888019901
928 56 0.018756916778646798
102 56 0.022909749888019901
297 127 0.056270750335940298
233 127 0.045819499776039802
56 127 0.045819499776039802
127 127 0.68127075033593998
211 127 0.037513833557293499
173 127 0.022909749888019901
884 127 0.022909749888019901
791 127 0.022909749888019901
216 127 0.022909749888019901
17 127 0.018756916778646798
76 127 0.022909749888019901
701 981 0.037513833557293499
439 981 0.068729249664059799
981 981 0.69372924966406002
329 981 0.037513833557293499
765 981 0.018756916778646798
229 981 0.045819499776039802
797 981 0.018756916778646798
718 981 0.018756916778646798
616 981 0.022909749888019901
261 981 0.018756916778646798
953 981 0.018756916778646798
776 329 0.056270750335940298
399 329 0.045819499776039802
981 329 0.068729249664059702
329 329 0.66666666666666696
411 329 0.018756916778646798
484 329 0.045819499776039802
797 329 0.018756916778646798
340 329 0.018756916778646798
284 329 0.022909749888019901
808 329 0.018756916778646798
665 329 0.018756916778646798
672 933 0.037513833557293499
39 933 0.068729249664059799
933 933 0.67081949977604005
988 933 0.056270750335940298
112 933 0.018756916778646798
409 933 0.045819499776039802
769 933 0.022909749888019901
905 933 0.018756916778646798
544 933 0.022909749888019901
749 933 0.018756916778646798
532 933 0.018756916778646798
738 988 0.056270750335940298
383 988 0.045819499776039802
933 988 0.045819499776039802
988 988 0.68542358344531296
930 988 0.018756916778646701
238 988 0.045819499776039802
769 988 0.022909749888019901
531 988 0.018756916778646701
365 988 0.022909749888019901
190 988 0.018756916778646701
767 988 0.018756916778646798
115 840 0.037513833557293499
42 840 0.068729249664059799
919 840 0.045819499776039802
840 840 0.66251383355729299
364 840 0.037513833557293499
756 840 0.045819499776039802
7 840 0.018756916778646701
62 840 0.022909749888019901
753 840 0.037513833557293499
522 840 0.022909749888019901
811 364 0.056270750335940298
93 364 0.045819499776039802
282 364 0.045819499776039802
840 364 0.068729249664059799
364 364 0.63545125055990004
935 364 0.045819499776039802
7 364 0.018756916778646798
181 364 0.022909749888019901
521 364 0.037513833557293499
427 364 0.022909749888019901
139 308 0.037513833557293499
515 308 0.068729249664059702
56 308 0.045819499776039802
308 308 0.63960408366927402
211 308 0.056270750335940298
256 308 0.045819499776039802
817 308 0.022909749888019901
530 308 0.022909749888019901
928 308 0.037513833557293499
221 308 0.022909749888019901
64 211 0.056270750335940298
61 211 0.045819499776039802
127 211 0.045819499776039802
308 211 0.045819499776039802
211 211 0.65420816733854703
793 211 0.045819499776039802
817 211 0.022909749888019901
791 211 0.022909749888019901
17 211 0.037513833557293499
901 211 0.022909749888019901
472 765 0.037513833557293499
209 765 0.068729249664059702
981 765 0.068729249664059702
765 765 0.625
411 765 0.037513833557293499
225 765 0.068729249664059702
957 765 0.018756916778646798
718 765 0.018756916778646798
261 765 0.037513833557293499
387 765 0.018756916778646798
964 411 0.056270750335940298
562 411 0.045819499776039802
329 411 0.068729249664059799
765 411 0.068729249664059799
411 411 0.59793741700260705
712 411 0.068729249664059799
957 411 0.018756916778646798
340 411 0.018756916778646798
808 411 0.037513833557293499
247 411 0.018756916778646798
505 112 0.037513833557293499
25 112 0.068729249664059702
933 112 0.068729249664059702
112 112 0.60209025011198003
930 112 0.056270750335940298
288 112 0.068729249664059702
479 112 0.022909749888019901
905 112 0.018756916778646798
749 112 0.037513833557293499
421 112 0.018756916778646798
313 930 0.056270750335940298
825 930 0.045819499776039802
988 930 0.068729249664059799
112 930 0.045819499776039802
930 930 0.61669433378125404
170 930 0.068729249664059799
479 930 0.022909749888019901
531 930 0.018756916778646798
190 930 0.037513833557293499
491 930 0.018756916778646798
513 79 0.037513833557293499
136 79 0.068729249664059799
919 79 0.056270750335940298
79 79 0.63330566621874596
868 79 0.037513833557293499
756 79 0.056270750335940298
444 79 0.018756916778646798
944 79 0.022909749888019901
607 79 0.045819499776039802
994 79 0.022909749888019901
63 868 0.056270750335940298
806 868 0.045819499776039802
282 868 0.056270750335940298
79 868 0.068729249664059702
868 868 0.60624308322135301
935 868 0.056270750335940298
444 868 0.018756916778646798
705 868 0.022909749888019901
508 868 0.045819499776039802
168 868 0.022909749888019901
820 458 0.037513833557293499
890 458 0.068729249664059799
56 458 0.056270750335940298
458 458 0.61039591633072598
173 458 0.056270750335940298
256 458 0.056270750335940298
461 458 0.022909749888019901
641 458 0.022909749888019901
205 458 0.045819499776039802
102 458 0.022909749888019901
236 173 0.056270750335940298
535 173 0.045819499776039802
127 173 0.056270750335940298
458 173 0.045819499776039802
173 173 0.625
793 173 0.056270750335940298
461 173 0.022909749888019901
152 173 0.022909749888019901
216 173 0.045819499776039802
76 173 0.022909749888019901
47 229 0.037513833557293499
787 229 0.068729249664059799
981 229 0.037513833557293499
229 229 0.67912516599478601
484 229 0.037513833557293499
225 229 0.037513833557293499
642 229 0.018756916778646798
66 229 0.018756916778646798
616 229 0.045819499776039802
953 229 0.018756916778646798
237 484 0.056270750335940298
983 484 0.045819499776039802
329 484 0.037513833557293499
229 484 0.068729249664059702
484 484 0.65206258299739295
712 484 0.037513833557293499
642 484 0.018756916778646798
355 484 0.018756916778646798
284 484 0.045819499776039802
665 484 0.018756916778646798
966 409 0.037513833557293499
119 409 0.068729249664059799
933 409 0.037513833557293499
409 409 0.65621541610676604
238 409 0.056270750335940298
288 409 0.037513833557293499
870 409 0.022909749888019901
696 409 0.018756916778646798
544 409 0.045819499776039802
532 409 0.018756916778646798
510 238 0.056270750335940298
1 238 0.045819499776039802
988 238 0.037513833557293499
409 238 0.045819499776039802
238 238 0.67081949977604005
170 238 0.037513833557293499
870 238 0.022909749888019901
335 238 0.018756916778646798
365 238 0.045819499776039802
767 238 0.018756916778646798
887 756 0.037513833557293499
931 756 0.068729249664059799
840 756 0.037513833557293499
79 756 0.022909749888019901
756 756 0.68957641655468604
935 756 0.037513833557293499
175 756 0.018756916778646701
944 756 0.022909749888019901
607 756 0.022909749888019901
753 756 0.018756916778646798
522 756 0.022909749888019901
376 935 0.056270750335940298
103 935 0.045819499776039802
364 935 0.037513833557293499
868 935 0.022909749888019901
756 935 0.068729249664059799
935 935 0.66251383355729299
175 935 0.018756916778646798
705 935 0.022909749888019901
508 935 0.022909749888019901
521 935 0.018756916778646798
427 935 0.022909749888019901
429 256 0.037513833557293499
206 256 0.068729249664059702
308 256 0.037513833557293499
458 256 0.022909749888019901
256 256 0.66666666666666696
793 256 0.056270750335940298
440 256 0.022909749888019901
641 256 0.022909749888019901
205 256 0.022909749888019901
928 256 0.018756916778646798
221 256 0.022909749888019901
932 793 0.056270750335940298
198 793 0.045819499776039802
211 793 0.037513833557293499
173 793 0.022909749888019901
256 793 0.045819499776039802
793 793 0.68127075033593998
440 793 0.022909749888019901
152 793 0.022909749888019901
216 793 0.022909749888019901
17 793 0.018756916778646798
901 793 0.022909749888019901
971 225 0.037513833557293499
744 225 0.068729249664059799
765 225 0.018756916778646798
229 225 0.045819499776039802
225 225 0.69372924966406002
712 225 0.037513833557293499
294 225 0.018756916778646798
66 225 0.018756916778646798
616 225 0.022909749888019901
261 225 0.018756916778646798
387 225 0.018756916778646798
231 712 0.056270750335940298
675 712 0.045819499776039802
411 712 0.018756916778646798
484 712 0.045819499776039802
225 712 0.068729249664059702
712 712 0.66666666666666696
294 712 0.018756916778646798
355 712 0.018756916778646798
284 712 0.022909749888019901
808 712 0.018756916778646798
247 712 0.018756916778646798
501 288 0.037513833557293499
481 288 0.068729249664059799
112 288 0.018756916778646798
409 288 0.045819499776039802
288 288 0.67081949977604005
170 288 0.056270750335940298
798 288 0.022909749888019901
696 288 0.018756916778646798
544 288 0.022909749888019901
749 288 0.018756916778646798
421 288 0.018756916778646798
1012 170 0.056270750335940298
286 170 0.045819499776039802
930 170 0.018756916778646701
238 170 0.045819499776039802
288 170 0.045819499776039802
170 170 0.68542358344531296
798 170 0.022909749888019901
335 170 0.018756916778646798
365 170 0.022909749888019901
190 170 0.018756916778646701
491 170 0.018756916778646701
745 745 0.69372924966406002
315 745 0.037513833557293499
386 745 0.037513833557293499
36 745 0.037513833557293499
990 745 0.022909749888019901
855 745 0.045819499776039802
642 745 0.022909749888019901
870 745 0.018756916778646798
268 745 0.022909749888019901
947 745 0.018756916778646798
478 745 0.018756916778646798
972 745 0.022909749888019901
745 315 0.045819499776039802
315 315 0.70833333333333304
936 315 0.018756916778646798
118 315 0.022909749888019901
951 315 0.037513833557293499
855 315 0.022909749888019901
884 315 0.018756916778646798
797 315 0.022909749888019901
769 315 0.018756916778646798
436 315 0.022909749888019901
589 315 0.018756916778646798
478 315 0.018756916778646798
375 315 0.022909749888019901
745 386 0.045819499776039802
386 386 0.70833333333333304
936 386 0.018756916778646798
661 386 0.037513833557293499
252 386 0.022909749888019901
855 386 0.022909749888019901
884 386 0.018756916778646798
294 386 0.022909749888019901
798 386 0.018756916778646798
664 386 0.022909749888019901
947 386 0.018756916778646798
24 386 0.018756916778646798
278 386 0.022909749888019901
315 936 0.068729249664059702
386 936 0.068729249664059702
936 936 0.63960408366927402
552 936 0.037513833557293499
750 936 0.022909749888019901
884 936 0.037513833557293499
957 936 0.022909749888019901
479 936 0.018756916778646798
685 936 0.022909749888019901
589 936 0.018756916778646798
24 936 0.018756916778646798
269 936 0.022909749888019901
315 118 0.056270750335940298
118 118 0.65206258299739295
543 118 0.056270750335940298
750 118 0.018756916778646798
990 118 0.045819499776039802
797 118 0.045819499776039802
444 118 0.022909749888019901
461 118 0.018756916778646798
748 118 0.018756916778646798
275 118 0.022909749888019901
375 118 0.022909749888019901
104 118 0.018756916778646798
118 543 0.022909749888019901
543 543 0.70833333333333304
951 543 0.037513833557293499
111 543 0.018756916778646798
710 543 0.045819499776039802
797 543 0.022909749888019901
769 543 0.018756916778646798
175 543 0.022909749888019901
440 543 0.018756916778646798
547 543 0.018756916778646798
275 543 0.022909749888019901
862 543 0.022909749888019901
40 543 0.018756916778646798
315 951 0.045819499776039802
543 951 0.045819499776039802
951 951 0.68127075033593998
36 951 0.045819499776039802
552 951 0.018756916778646798
769 951 0.037513833557293499
7 951 0.022909749888019901
817 951 0.018756916778646798
436 951 0.022909749888019901
468 951 0.018756916778646798
862 951 0.022909749888019901
679 951 0.018756916778646798
745 36 0.045819499776039802
951 36 0.037513833557293499
36 36 0.66666666666666696
661 36 0.037513833557293499
710 36 0.045819499776039802
7 36 0.045819499776039802
870 36 0.037513833557293499
268 36 0.022909749888019901
140 36 0.018756916778646798
679 36 0.018756916778646798
272 36 0.022909749888019901
386 661 0.045819499776039802
36 661 0.045819499776039802
661 661 0.68127075033593998
552 661 0.018756916778646798
1011 661 0.045819499776039802
7 661 0.022909749888019901
817 661 0.018756916778646798
798 661 0.037513833557293499
664 661 0.022909749888019901
140 661 0.018756916778646798
356 661 0.018756916778646798
673 661 0.022909749888019901
936 552 0.045819499776039802
951 552 0.068729249664059702
661 552 0.068729249664059702
552 552 0.61254150067187996
111 552 0.045819499776039802
817 552 0.037513833557293499
479 552 0.037513833557293499
685 552 0.022909749888019901
468 552 0.018756916778646798
356 552 0.018756916778646798
598 552 0.022909749888019901
936 750 0.056270750335940298
118 750 0.068729249664059799
750 750 0.58333333333333304
111 750 0.056270750335940298
252 750 0.068729249664059799
957 750 0.045819499776039802
461 750 0.037513833557293499
748 750 0.018756916778646798
632 750 0.022909749888019901
269 750 0.022909749888019901
410 750 0.018756916778646798
543 111 0.068729249664059702
552 111 0.037513833557293499
750 111 0.022909749888019901
111 111 0.63960408366927402
1011 111 0.068729249664059702
957 111 0.022909749888019901
479 111 0.018756916778646798
440 111 0.037513833557293499
547 111 0.018756916778646798
632 111 0.022909749888019901
598 111 0.022909749888019901
59 111 0.018756916778646798
745 990 0.056270750335940298
118 990 0.037513833557293499
990 990 0.63745849932811904
252 990 0.037513833557293499
710 990 0.056270750335940298
444 990 0.045819499776039802
642 990 0.045819499776039802
319 990 0.022909749888019901
695 990 0.018756916778646798
104 990 0.018756916778646798
972 990 0.022909749888019901
386 252 0.056270750335940298
750 252 0.018756916778646798
990 252 0.045819499776039802
252 252 0.65206258299739295
1011 252 0.056270750335940298
444 252 0.022909749888019901
461 252 0.018756916778646798
294 252 0.045819499776039802
945 252 0.022909749888019901
695 252 0.018756916778646798
410 252 0.018756916778646798
278 252 0.022909749888019901
543 710 0.037513833557293499
36 710 0.037513833557293499
990 710 0.022909749888019901
710 710 0.69372924966406002
1011 710 0.037513833557293499
642 710 0.022909749888019901
870 710 0.018756916778646798
175 710 0.045819499776039802
319 710 0.022909749888019901
754 710 0.018756916778646798
272 710 0.022909749888019901
40 710 0.018756916778646798
661 1011 0.037513833557293499
111 1011 0.018756916778646798
252 1011 0.022909749888019901
710 1011 0.045819499776039802
1011 1011 0.70833333333333304
175 1011 0.022909749888019901
440 1011 0.018756916778646798
294 1011 0.022909749888019901
798 1011 0.018756916778646798
945 1011 0.022909749888019901
754 1011 0.018756916778646798
59 1011 0.018756916778646798
673 1011 0.022909749888019901
919 855 0.068729249664059799
282 855 0.037513833557293499
745 855 0.0916389995520797
315 855 0.037513833557293499
386 855 0.037513833557293499
855 855 0.54166666666666696
7 855 0.037513833557293499
444 855 0.022909749888019901
94 855 0.018756916778646798
723 855 0.022909749888019901
947 855 0.018756916778646798
651 855 0.022909749888019901
478 855 0.018756916778646798
92 855 0.022909749888019901
56 884 0.045819499776039802
127 884 0.056270750335940298
315 884 0.068729249664059702
386 884 0.068729249664059702
936 884 0.037513833557293499
884 884 0.53751383355729299
817 884 0.037513833557293499
461 884 0.022909749888019901
909 884 0.018756916778646798
683 884 0.022909749888019901
589 884 0.018756916778646798
858 884 0.022909749888019901
24 884 0.018756916778646798
920 884 0.022909749888019901
981 797 0.068729249664059702
329 797 0.037513833557293499
315 797 0.056270750335940298
118 797 0.045819499776039802
543 797 0.056270750335940298
797 797 0.54581949977604005
957 797 0.018756916778646798
642 797 0.045819499776039802
683 797 0.018756916778646798
723 797 0.022909749888019901
275 797 0.022909749888019901
44 797 0.018756916778646798
375 797 0.022909749888019901
292 797 0.018756916778646798
933 769 0.045819499776039802
988 769 0.056270750335940298
315 769 0.045819499776039802
543 769 0.045819499776039802
951 769 0.075027667114586999
769 769 0.54166666666666696
479 769 0.018756916778646798
870 769 0.045819499776039802
94 769 0.022909749888019901
909 769 0.018756916778646798
436 769 0.022909749888019901
986 769 0.018756916778646798
862 769 0.022909749888019901
338 769 0.018756916778646798
840 7 0.068729249664059799
364 7 0.037513833557293499
951 7 0.037513833557293499
36 7 0.0916389995520797
661 7 0.037513833557293499
855 7 0.045819499776039802
7 7 0.51460408366927402
175 7 0.045819499776039802
94 7 0.037513833557293499
140 7 0.018756916778646798
651 7 0.022909749888019901
679 7 0.018756916778646798
758 7 0.022909749888019901
308 817 0.045819499776039802
211 817 0.056270750335940298
951 817 0.068729249664059702
661 817 0.068729249664059702
552 817 0.037513833557293499
884 817 0.045819499776039802
817 817 0.51045125055990004
440 817 0.045819499776039802
909 817 0.037513833557293499
468 817 0.018756916778646798
858 817 0.022909749888019901
356 817 0.018756916778646798
382 817 0.022909749888019901
765 957 0.068729249664059799
411 957 0.037513833557293499
936 957 0.056270750335940298
750 957 0.045819499776039802
111 957 0.056270750335940298
797 957 0.068729249664059799
957 957 0.47709025011197997
294 957 0.068729249664059799
683 957 0.037513833557293499
632 957 0.022909749888019901
44 957 0.018756916778646798
269 957 0.022909749888019901
778 957 0.018756916778646798
112 479 0.045819499776039802
930 479 0.056270750335940298
936 479 0.045819499776039802
552 479 0.075027667114586999
111 479 0.045819499776039802
769 479 0.068729249664059702
479 479 0.472937417002607
798 479 0.068729249664059702
909 479 0.037513833557293499
685 479 0.022909749888019901
986 479 0.018756916778646798
598 479 0.022909749888019901
418 479 0.018756916778646798
79 444 0.068729249664059702
868 444 0.037513833557293499
118 444 0.037513833557293499
990 444 0.0916389995520797
252 444 0.037513833557293499
855 444 0.056270750335940298
444 444 0.48539591633072598
175 444 0.056270750335940298
723 444 0.045819499776039802
695 444 0.018756916778646798
864 444 0.022909749888019901
104 444 0.018756916778646798
92 444 0.022909749888019901
458 461 0.045819499776039802
173 461 0.056270750335940298
118 461 0.068729249664059799
750 461 0.037513833557293499
252 461 0.068729249664059799
884 461 0.056270750335940298
461 461 0.48124308322135301
440 461 0.056270750335940298
683 461 0.045819499776039802
748 461 0.018756916778646798
527 461 0.022909749888019901
410 461 0.018756916778646798
920 461 0.022909749888019901
229 642 0.068729249664059702
484 642 0.037513833557293499
745 642 0.056270750335940298
990 642 0.045819499776039802
710 642 0.056270750335940298
797 642 0.037513833557293499
642 642 0.53121541610676604
294 642 0.037513833557293499
723 642 0.045819499776039802
319 642 0.022909749888019901
437 642 0.018756916778646798
972 642 0.022909749888019901
292 642 0.018756916778646798
409 870 0.045819499776039802
238 870 0.056270750335940298
745 870 0.045819499776039802
36 870 0.075027667114586999
710 870 0.045819499776039802
769 870 0.037513833557293499
870 870 0.52706258299739295
798 870 0.037513833557293499
94 870 0.045819499776039802
268 870 0.022909749888019901
398 870 0.018756916778646798
272 870 0.022909749888019901
338 870 0.018756916778646798
756 175 0.068729249664059799
935 175 0.037513833557293499
543 175 0.037513833557293499
710 175 0.0916389995520797
1011 175 0.037513833557293499
7 175 0.037513833557293499
444 175 0.022909749888019901
175 175 0.54166666666666696
94 175 0.018756916778646798
723 175 0.022909749888019901
754 175 0.018756916778646798
864 175 0.022909749888019901
40 175 0.018756916778646798
758 175 0.022909749888019901
256 440 0.045819499776039802
793 440 0.056270750335940298
543 440 0.068729249664059702
111 440 0.037513833557293499
1011 440 0.068729249664059702
817 440 0.037513833557293499
461 440 0.022909749888019901
440 440 0.53751383355729299
909 440 0.018756916778646798
683 440 0.022909749888019901
547 440 0.018756916778646798
527 440 0.022909749888019901
59 440 0.018756916778646798
382 440 0.022909749888019901
225 294 0.068729249664059702
712 294 0.037513833557293499
386 294 0.056270750335940298
252 294 0.045819499776039802
1011 294 0.056270750335940298
957 294 0.018756916778646798
642 294 0.045819499776039802
294 294 0.54581949977604005
683 294 0.018756916778646798
723 294 0.022909749888019901
945 294 0.022909749888019901
437 294 0.018756916778646798
278 294 0.022909749888019901
778 294 0.018756916778646798
288 798 0.045819499776039802
170 798 0.056270750335940298
386 798 0.045819499776039802
661 798 0.075027667114586999
1011 798 0.045819499776039802
479 798 0.018756916778646798
870 798 0.045819499776039802
798 798 0.54166666666666696
94 798 0.022909749888019901
909 798 0.018756916778646798
664 798 0.022909749888019901
398 798 0.018756916778646798
673 798 0.022909749888019901
418 798 0.018756916778646798
963 62 0.037513833557293499
848 62 0.068729249664059799
248 62 0.045819499776039802
763 62 0.037513833557293499
919 62 0.045819499776039802
840 62 0.037513833557293499
62 62 0.56042358344531296
181 62 0.037513833557293499
944 62 0.045819499776039802
753 62 0.018756916778646798
762 62 0.022909749888019901
759 62 0.022909749888019901
651 62 0.018756916778646701
965 181 0.056270750335940298
843 181 0.045819499776039802
650 181 0.045819499776039802
75 181 0.037513833557293499
282 181 0.045819499776039802
364 181 0.037513833557293499
62 181 0.068729249664059799
181 181 0.53336100044792001
705 181 0.045819499776039802
521 181 0.018756916778646798
85 181 0.022909749888019901
316 181 0.022909749888019901
651 181 0.018756916778646798
578 530 0.037513833557293499
37 530 0.068729249664059702
560 530 0.068729249664059702
129 530 0.018756916778646798
56 530 0.045819499776039802
308 530 0.037513833557293499
530 530 0.53751383355729299
791 530 0.056270750335940298
641 530 0.045819499776039802
928 530 0.018756916778646798
967 530 0.018756916778646798
487 530 0.022909749888019901
858 530 0.022909749888019901
265 791 0.056270750335940298
995 791 0.045819499776039802
989 791 0.068729249664059799
615 791 0.018756916778646798
127 791 0.045819499776039802
211 791 0.037513833557293499
530 791 0.045819499776039802
791 791 0.552117917226567
152 791 0.045819499776039802
17 791 0.018756916778646798
602 791 0.018756916778646798
415 791 0.022909749888019901
858 791 0.022909749888019901
648 718 0.037513833557293499
81 718 0.068729249664059702
295 718 0.022909749888019901
807 718 0.056270750335940298
981 718 0.068729249664059702
765 718 0.018756916778646798
718 718 0.54166666666666696
340 718 0.037513833557293499
66 718 0.068729249664059702
261 718 0.018756916778646798
678 718 0.022909749888019901
55 718 0.018756916778646798
44 718 0.018756916778646798
755 340 0.056270750335940298
1001 340 0.045819499776039802
571 340 0.022909749888019901
556 340 0.056270750335940298
329 340 0.068729249664059799
411 340 0.018756916778646798
718 340 0.068729249664059799
340 340 0.51460408366927402
355 340 0.068729249664059799
808 340 0.018756916778646798
154 340 0.022909749888019901
898 340 0.018756916778646798
44 340 0.018756916778646798
250 905 0.037513833557293499
636 905 0.068729249664059702
89 905 0.045819499776039802
430 905 0.037513833557293499
933 905 0.068729249664059702
112 905 0.018756916778646798
905 905 0.51875691677864699
531 905 0.056270750335940298
696 905 0.068729249664059702
749 905 0.018756916778646798
72 905 0.018756916778646798
351 905 0.018756916778646798
986 905 0.022909749888019901
180 531 0.056270750335940298
350 531 0.045819499776039802
977 531 0.045819499776039802
869 531 0.037513833557293499
988 531 0.068729249664059799
930 531 0.018756916778646798
905 531 0.045819499776039802
531 531 0.53336100044792001
335 531 0.068729249664059799
190 531 0.018756916778646798
968 531 0.018756916778646798
796 531 0.018756916778646798
986 531 0.022909749888019901
623 944 0.037513833557293499
433 944 0.068729249664059799
996 944 0.045819499776039802
466 944 0.037513833557293499
79 944 0.022909749888019901
756 944 0.056270750335940298
62 944 0.056270750335940298
944 944 0.54997233288541303
705 944 0.037513833557293499
607 944 0.022909749888019901
307 944 0.022909749888019901
759 944 0.022909749888019901
864 944 0.018756916778646798
8 705 0.056270750335940298
698 705 0.045819499776039802
867 705 0.045819499776039802
876 705 0.037513833557293499
868 705 0.022909749888019901
935 705 0.056270750335940298
181 705 0.056270750335940298
944 705 0.068729249664059702
705 705 0.52290974988801997
508 705 0.022909749888019901
120 705 0.022909749888019901
316 705 0.022909749888019901
864 705 0.018756916778646798
812 641 0.037513833557293499
904 641 0.068729249664059799
86 641 0.068729249664059799
146 641 0.018756916778646798
458 641 0.022909749888019901
256 641 0.056270750335940298
530 641 0.056270750335940298
641 641 0.52706258299739295
152 641 0.056270750335940298
205 641 0.022909749888019901
234 641 0.018756916778646798
487 641 0.022909749888019901
527 641 0.022909749888019901
856 152 0.056270750335940298
143 152 0.045819499776039802
435 152 0.068729249664059702
259 152 0.018756916778646798
173 152 0.022909749888019901
793 152 0.056270750335940298
791 152 0.056270750335940298
641 152 0.045819499776039802
152 152 0.54166666666666696
216 152 0.022909749888019901
732 152 0.018756916778646798
415 152 0.022909749888019901
527 152 0.022909749888019901
546 66 0.037513833557293499
974 66 0.068729249664059799
800 66 0.022909749888019901
88 66 0.056270750335940298
229 66 0.045819499776039802
225 66 0.037513833557293499
718 66 0.037513833557293499
66 66 0.572882082773433
355 66 0.037513833557293499
616 66 0.022909749888019901
304 66 0.022909749888019901
55 66 0.018756916778646798
437 66 0.018756916778646798
11 355 0.056270750335940298
937 355 0.045819499776039802
171 355 0.022909749888019901
124 355 0.056270750335940298
484 355 0.045819499776039802
712 355 0.037513833557293499
340 355 0.037513833557293499
66 355 0.068729249664059702
355 355 0.54581949977604005
284 355 0.022909749888019901
597 355 0.022909749888019901
898 355 0.018756916778646798
437 355 0.018756916778646798
582 696 0.037513833557293499
961 696 0.068729249664059799
640 696 0.045819499776039802
949 696 0.037513833557293499
409 696 0.045819499776039802
288 696 0.037513833557293499
905 696 0.037513833557293499
696 696 0.54997233288541303
335 696 0.056270750335940298
544 696 0.022909749888019901
606 696 0.018756916778646798
351 696 0.018756916778646798
398 696 0.022909749888019901
1009 335 0.056270750335940298
499 335 0.045819499776039802
493 335 0.045819499776039802
51 335 0.037513833557293499
238 335 0.045819499776039802
170 335 0.037513833557293499
531 335 0.037513833557293499
696 335 0.045819499776039802
335 335 0.56457641655468704
365 335 0.022909749888019901
588 335 0.018756916778646798
796 335 0.018756916778646701
398 335 0.022909749888019901
142 235 0.037513833557293499
434 235 0.037513833557293499
783 235 0.068729249664059799
659 235 0.068729249664059799
235 235 0.65206258299739295
768 235 0.037513833557293499
276 235 0.056270750335940298
544 235 0.018756916778646701
753 235 0.022909749888019901
819 768 0.056270750335940298
882 768 0.037513833557293499
331 768 0.045819499776039802
73 768 0.068729249664059799
235 768 0.068729249664059799
768 768 0.625
786 768 0.056270750335940298
544 768 0.018756916778646798
521 768 0.022909749888019901
389 915 0.037513833557293499
549 915 0.037513833557293499
761 915 0.068729249664059702
296 915 0.068729249664059702
915 915 0.62915283310937298
227 915 0.056270750335940298
872 915 0.056270750335940298
749 915 0.022909749888019901
928 915 0.022909749888019901
896 227 0.056270750335940298
700 227 0.037513833557293499
222 227 0.045819499776039802
207 227 0.068729249664059799
915 227 0.045819499776039802
227 227 0.64375691677864699
1010 227 0.056270750335940298
749 227 0.022909749888019901
17 227 0.022909749888019901
1002 100 0.037513833557293499
881 100 0.037513833557293499
260 100 0.068729249664059702
570 100 0.068729249664059702
100 100 0.65206258299739295
49 100 0.037513833557293499
708 100 0.056270750335940298
205 100 0.018756916778646798
261 100 0.022909749888019901
277 49 0.056270750335940298
1015 49 0.037513833557293499
5 49 0.045819499776039802
68 49 0.068729249664059799
100 49 0.068729249664059799
49 49 0.625
511 49 0.056270750335940298
205 49 0.018756916778646798
808 49 0.022909749888019901
736 872 0.056270750335940298
483 872 0.037513833557293499
709 872 0.045819499776039802
117 872 0.068729249664059799
915 872 0.045819499776039802
872 872 0.64375691677864699
1010 872 0.056270750335940298
928 872 0.022909749888019901
190 872 0.022909749888019901
785 647 0.037513833557293499
735 647 0.037513833557293499
2 647 0.068729249664059799
628 647 0.068729249664059799
647 647 0.67497233288541303
584 647 0.037513833557293499
426 647 0.037513833557293499
616 647 0.018756916778646701
607 647 0.018756916778646701
842 584 0.056270750335940298
863 584 0.037513833557293499
653 584 0.045819499776039802
724 584 0.068729249664059799
647 584 0.068729249664059799
584 584 0.64790974988801997
871 584 0.037513833557293499
616 584 0.018756916778646798
508 584 0.018756916778646798
991 708 0.056270750335940298
380 708 0.037513833557293499
48 708 0.045819499776039802
179 708 0.068729249664059799
100 708 0.045819499776039802
708 708 0.66666666666666696
511 708 0.037513833557293499
261 708 0.022909749888019901
216 708 0.018756916778646798
925 426 0.056270750335940298
13 426 0.037513833557293499
83 426 0.045819499776039802
780 426 0.068729249664059799
647 426 0.068729249664059799
426 426 0.64790974988801997
871 426 0.037513833557293499
607 426 0.018756916778646798
284 426 0.018756916778646798
10 276 0.056270750335940298
58 276 0.037513833557293499
270 276 0.045819499776039802
114 276 0.068729249664059799
235 276 0.045819499776039802
276 276 0.66666666666666696
786 276 0.037513833557293499
753 276 0.022909749888019901
365 276 0.018756916778646798
975 786 0.056270750335940298
302 786 0.056270750335940298
760 786 0.045819499776039802
873 786 0.045819499776039802
768 786 0.045819499776039802
276 786 0.068729249664059799
786 786 0.63960408366927402
365 786 0.018756916778646798
521 786 0.022909749888019901
305 1010 0.056270750335940298
608 1010 0.056270750335940298
903 1010 0.045819499776039802
401 1010 0.045819499776039802
227 1010 0.045819499776039802
872 1010 0.045819499776039802
1010 1010 0.65836100044792001
190 1010 0.022909749888019901
17 1010 0.022909749888019901
262 511 0.056270750335940298
941 511 0.056270750335940298
310 511 0.045819499776039802
240 511 0.045819499776039802
49 511 0.045819499776039802
708 511 0.068729249664059702
511 511 0.63960408366927402
216 511 0.018756916778646798
808 511 0.022909749888019901
555 871 0.056270750335940298
525 871 0.056270750335940298
34 871 0.045819499776039802
621 871 0.045819499776039802
584 871 0.068729249664059702
426 871 0.068729249664059702
871 871 0.62084716689062702
284 871 0.018756916778646798
508 871 0.018756916778646798
246 544 0.037513833557293499
196 544 0.068729249664059799
933 544 0.037513833557293499
409 544 0.0916389995520797
288 544 0.037513833557293499
696 544 0.018756916778646798
235 544 0.068729249664059799
768 544 0.037513833557293499
544 544 0.50415283310937298
365 544 0.056270750335940298
94 544 0.022909749888019901
532 544 0.018756916778646798
729 749 0.037513833557293499
267 749 0.068729249664059702
933 749 0.068729249664059702
112 749 0.037513833557293499
288 749 0.068729249664059702
905 749 0.018756916778646798
915 749 0.045819499776039802
227 749 0.056270750335940298
749 749 0.5
190 749 0.056270750335940298
909 749 0.022909749888019901
421 749 0.018756916778646798
752 205 0.037513833557293499
627 205 0.068729249664059799
56 205 0.056270750335940298
458 205 0.045819499776039802
256 205 0.056270750335940298
641 205 0.022909749888019901
100 205 0.068729249664059799
49 205 0.037513833557293499
205 205 0.50415283310937298
216 205 0.056270750335940298
683 205 0.022909749888019901
102 205 0.022909749888019901
453 928 0.037513833557293499
230 928 0.068729249664059702
56 928 0.045819499776039802
308 928 0.075027667114586999
256 928 0.045819499776039802
530 928 0.022909749888019901
915 928 0.045819499776039802
872 928 0.056270750335940298
928 928 0.5
17 928 0.056270750335940298
909 928 0.022909749888019901
221 928 0.022909749888019901
232 616 0.037513833557293499
512 616 0.068729249664059799
981 616 0.037513833557293499
229 616 0.0916389995520797
225 616 0.037513833557293499
66 616 0.018756916778646798
647 616 0.068729249664059799
584 616 0.037513833557293499
616 616 0.52706258299739295
284 616 0.037513833557293499
723 616 0.018756916778646798
953 616 0.018756916778646798
809 261 0.037513833557293499
956 261 0.068729249664059702
981 261 0.068729249664059702
765 261 0.037513833557293499
225 261 0.068729249664059702
718 261 0.018756916778646798
100 261 0.045819499776039802
708 261 0.056270750335940298
261 261 0.52290974988801997
808 261 0.037513833557293499
683 261 0.018756916778646798
387 261 0.018756916778646798
144 607 0.037513833557293499
202 607 0.068729249664059799
919 607 0.056270750335940298
79 607 0.045819499776039802
756 607 0.056270750335940298
944 607 0.022909749888019901
647 607 0.068729249664059799
426 607 0.037513833557293499
607 607 0.52706258299739295
508 607 0.037513833557293499
723 607 0.018756916778646798
994 607 0.022909749888019901
254 753 0.037513833557293499
291 753 0.068729249664059799
919 753 0.045819499776039802
840 753 0.075027667114586999
756 753 0.045819499776039802
62 753 0.022909749888019901
235 753 0.045819499776039802
276 753 0.056270750335940298
753 753 0.52290974988801997
521 753 0.037513833557293499
94 753 0.018756916778646701
522 753 0.022909749888019901
645 365 0.056270750335940298
394 365 0.045819499776039802
988 365 0.037513833557293499
238 365 0.0916389995520797
170 365 0.037513833557293499
335 365 0.018756916778646798
276 365 0.068729249664059799
786 365 0.037513833557293499
544 365 0.045819499776039802
365 365 0.51875691677864699
94 365 0.022909749888019901
767 365 0.018756916778646798
518 190 0.056270750335940298
728 190 0.045819499776039802
988 190 0.068729249664059799
930 190 0.037513833557293499
170 190 0.068729249664059799
531 190 0.018756916778646798
872 190 0.045819499776039802
1010 190 0.056270750335940298
749 190 0.045819499776039802
190 190 0.51460408366927402
909 190 0.022909749888019901
491 190 0.018756916778646798
450 216 0.056270750335940298
457 216 0.045819499776039802
127 216 0.056270750335940298
173 216 0.045819499776039802
793 216 0.056270750335940298
152 216 0.022909749888019901
708 216 0.068729249664059702
511 216 0.037513833557293499
205 216 0.045819499776039802
216 216 0.51875691677864699
683 216 0.022909749888019901
76 216 0.022909749888019901
918 17 0.056270750335940298
417 17 0.045819499776039802
127 17 0.045819499776039802
211 17 0.075027667114586999
793 17 0.045819499776039802
791 17 0.022909749888019901
227 17 0.045819499776039802
1010 17 0.056270750335940298
928 17 0.045819499776039802
17 17 0.51460408366927402
909 17 0.022909749888019901
901 17 0.022909749888019901
541 284 0.056270750335940298
860 284 0.045819499776039802
329 284 0.037513833557293499
484 284 0.0916389995520797
712 284 0.037513833557293499
355 284 0.018756916778646798
426 284 0.068729249664059702
871 284 0.037513833557293499
616 284 0.068729249664059702
284 284 0.5
723 284 0.018756916778646798
665 284 0.018756916778646798
220 808 0.056270750335940298
553 808 0.045819499776039802
329 808 0.068729249664059799
411 808 0.037513833557293499
712 808 0.068729249664059799
340 808 0.018756916778646798
49 808 0.045819499776039802
511 808 0.056270750335940298
261 808 0.068729249664059799
808 808 0.49584716689062702
683 808 0.018756916778646798
247 808 0.018756916778646798
312 508 0.056270750335940298
668 508 0.045819499776039802
282 508 0.056270750335940298
868 508 0.045819499776039802
935 508 0.056270750335940298
705 508 0.022909749888019901
584 508 0.068729249664059702
871 508 0.037513833557293499
607 508 0.068729249664059702
508 508 0.5
723 508 0.018756916778646798
168 508 0.022909749888019901
773 521 0.056270750335940298
520 521 0.045819499776039802
282 521 0.045819499776039802
364 521 0.075027667114586999
935 521 0.045819499776039802
181 521 0.022909749888019901
768 521 0.045819499776039802
786 521 0.056270750335940298
753 521 0.068729249664059799
521 521 0.49584716689062702
94 521 0.018756916778646798
427 521 0.022909749888019901
855 94 0.045819499776039802
769 94 0.037513833557293499
7 94 0.075027667114586999
870 94 0.0916389995520797
175 94 0.045819499776039802
798 94 0.037513833557293499
544 94 0.045819499776039802
753 94 0.068729249664059799
365 94 0.056270750335940298
521 94 0.037513833557293499
94 94 0.375
651 94 0.022909749888019901
398 94 0.018756916778646798
338 94 0.018756916778646798
758 94 0.022909749888019901
884 909 0.045819499776039802
769 909 0.068729249664059702
817 909 0.075027667114586999
479 909 0.037513833557293499
440 909 0.045819499776039802
798 909 0.068729249664059702
749 909 0.045819499776039802
928 909 0.045819499776039802
190 909 0.056270750335940298
17 909 0.056270750335940298
909 909 0.37084716689062702
858 909 0.022909749888019901
986 909 0.018756916778646798
418 909 0.018756916778646798
382 909 0.022909749888019901
884 683 0.056270750335940298
797 683 0.068729249664059799
957 683 0.037513833557293499
461 683 0.045819499776039802
440 683 0.056270750335940298
294 683 0.068729249664059799
205 683 0.045819499776039802
261 683 0.068729249664059799
216 683 0.056270750335940298
808 683 0.037513833557293499
683 683 0.375
44 683 0.018756916778646798
527 683 0.022909749888019901
920 683 0.022909749888019901
778 683 0.018756916778646798
855 723 0.056270750335940298
797 723 0.037513833557293499
444 723 0.045819499776039802
642 723 0.0916389995520797
175 723 0.056270750335940298
294 723 0.037513833557293499
616 723 0.068729249664059702
607 723 0.068729249664059702
284 723 0.037513833557293499
508 723 0.037513833557293499
723 723 0.37915283310937298
864 723 0.022909749888019901
437 723 0.018756916778646798
292 723 0.018756916778646798
92 723 0.022909749888019901
510 587 0.045819499776039802
738 587 0.037513833557293499
645 587 0.022909749888019901
587 587 0.76875691677864699
151 587 0.037513833557293499
372 587 0.045819499776039802
266 587 0.018756916778646798
767 587 0.022909749888019901
1012 151 0.068729249664059799
313 151 0.018756916778646798
518 151 0.018756916778646798
587 151 0.068729249664059799
151 151 0.73754150067188096
504 151 0.045819499776039802
266 151 0.018756916778646798
491 151 0.022909749888019901
236 494 0.022909749888019901
297 494 0.056270750335940298
450 494 0.022909749888019901
494 494 0.75
528 494 0.056270750335940298
379 494 0.045819499776039802
182 494 0.022909749888019901
76 494 0.022909749888019901
932 528 0.045819499776039802
64 528 0.037513833557293499
918 528 0.018756916778646798
494 528 0.045819499776039802
528 528 0.76045125055990004
585 528 0.045819499776039802
182 528 0.022909749888019901
901 528 0.022909749888019901
237 847 0.045819499776039802
776 847 0.037513833557293499
541 847 0.022909749888019901
847 847 0.76875691677864699
906 847 0.037513833557293499
1005 847 0.045819499776039802
113 847 0.018756916778646798
665 847 0.022909749888019901
231 906 0.068729249664059702
964 906 0.018756916778646798
220 906 0.018756916778646798
847 906 0.068729249664059702
906 906 0.73754150067188096
358 906 0.045819499776039802
113 906 0.018756916778646798
247 906 0.022909749888019901
63 658 0.022909749888019901
987 658 0.056270750335940298
312 658 0.022909749888019901
658 658 0.75
857 658 0.056270750335940298
473 658 0.045819499776039802
802 658 0.022909749888019901
168 658 0.022909749888019901
376 857 0.045819499776039802
811 857 0.037513833557293499
773 857 0.018756916778646798
658 857 0.045819499776039802
857 857 0.76045125055990004
110 857 0.045819499776039802
802 857 0.022909749888019901
427 857 0.022909749888019901
966 624 0.045819499776039802
672 624 0.037513833557293499
246 624 0.022909749888019901
624 624 0.75
176 624 0.037513833557293499
486 624 0.068729249664059799
731 624 0.018756916778646798
532 624 0.018756916778646798
501 176 0.068729249664059702
505 176 0.018756916778646798
729 176 0.018756916778646798
624 176 0.068729249664059702
176 176 0.71878458389323396
166 176 0.068729249664059702
731 176 0.018756916778646798
421 176 0.018756916778646798
820 314 0.022909749888019901
43 314 0.056270750335940298
752 314 0.022909749888019901
314 314 0.73124308322135301
692 314 0.056270750335940298
747 314 0.068729249664059799
359 314 0.022909749888019901
102 314 0.018756916778646798
429 692 0.045819499776039802
139 692 0.037513833557293499
453 692 0.018756916778646798
314 692 0.045819499776039802
692 692 0.74169433378125404
82 692 0.068729249664059702
359 692 0.022909749888019901
221 692 0.018756916778646798
47 403 0.045819499776039802
701 403 0.037513833557293499
232 403 0.022909749888019901
403 403 0.75
156 403 0.037513833557293499
448 403 0.068729249664059799
395 403 0.018756916778646798
953 403 0.018756916778646798
971 156 0.068729249664059702
472 156 0.018756916778646798
809 156 0.018756916778646798
403 156 0.068729249664059702
156 156 0.71878458389323396
652 156 0.068729249664059702
395 156 0.018756916778646798
387 156 0.018756916778646798
513 934 0.022909749888019901
984 934 0.056270750335940298
144 934 0.022909749888019901
934 934 0.73124308322135301
929 934 0.056270750335940298
660 934 0.068729249664059799
9 934 0.022909749888019901
994 934 0.018756916778646798
887 929 0.045819499776039802
115 929 0.037513833557293499
254 929 0.018756916778646798
934 929 0.045819499776039802
929 929 0.74169433378125404
454 929 0.068729249664059799
9 929 0.022909749888019901
522 929 0.018756916778646798
1 372 0.045819499776039802
383 372 0.037513833557293499
394 372 0.022909749888019901
587 372 0.056270750335940298
372 372 0.75830566621874596
504 372 0.037513833557293499
503 372 0.018756916778646701
767 372 0.022909749888019901
286 504 0.068729249664059799
825 504 0.018756916778646798
728 504 0.018756916778646798
151 504 0.056270750335940298
372 504 0.068729249664059799
504 504 0.72709025011198003
503 504 0.018756916778646798
491 504 0.022909749888019901
535 379 0.022909749888019901
233 379 0.056270750335940298
457 379 0.022909749888019901
494 379 0.056270750335940298
379 379 0.73954874944009996
585 379 0.056270750335940298
165 379 0.022909749888019901
76 379 0.022909749888019901
198 585 0.045819499776039802
61 585 0.037513833557293499
417 585 0.018756916778646798
528 585 0.056270750335940298
379 585 0.045819499776039802
585 585 0.75
165 585 0.022909749888019901
901 585 0.022909749888019901
983 1005 0.045819499776039802
399 1005 0.037513833557293499
860 1005 0.022909749888019901
847 1005 0.056270750335940298
1005 1005 0.75830566621874596
358 1005 0.037513833557293499
784 1005 0.018756916778646798
665 1005 0.022909749888019901
675 358 0.068729249664059799
562 358 0.018756916778646798
553 358 0.018756916778646798
906 358 0.056270750335940298
1005 358 0.068729249664059799
358 358 0.72709025011198003
784 358 0.018756916778646798
247 358 0.022909749888019901
806 473 0.022909749888019901
70 473 0.056270750335940298
668 473 0.022909749888019901
658 473 0.056270750335940298
473 473 0.73954874944009996
110 473 0.056270750335940298
846 473 0.022909749888019901
168 473 0.022909749888019901
103 110 0.045819499776039802
93 110 0.037513833557293499
520 110 0.018756916778646798
857 110 0.056270750335940298
473 110 0.045819499776039802
110 110 0.75
846 110 0.022909749888019901
427 110 0.022909749888019901
119 486 0.045819499776039802
39 486 0.037513833557293499
196 486 0.022909749888019901
624 486 0.037513833557293499
486 486 0.78121541610676604
166 486 0.037513833557293499
814 486 0.018756916778646701
532 486 0.018756916778646701
481 166 0.068729249664059799
25 166 0.018756916778646798
267 166 0.018756916778646798
176 166 0.037513833557293499
486 166 0.068729249664059799
166 166 0.75
814 166 0.018756916778646798
421 166 0.018756916778646798
890 747 0.022909749888019901
213 747 0.056270750335940298
627 747 0.022909749888019901
314 747 0.037513833557293499
747 747 0.76245849932811904
82 747 0.056270750335940298
611 747 0.022909749888019901
102 747 0.018756916778646798
206 82 0.045819499776039802
515 82 0.037513833557293499
230 82 0.018756916778646798
692 82 0.037513833557293499
747 82 0.045819499776039802
82 82 0.77290974988801997
611 82 0.022909749888019901
221 82 0.018756916778646798
787 448 0.045819499776039802
439 448 0.037513833557293499
512 448 0.022909749888019901
403 448 0.037513833557293499
448 448 0.78121541610676604
652 448 0.037513833557293499
95 448 0.018756916778646701
953 448 0.018756916778646701
744 652 0.068729249664059799
209 652 0.018756916778646798
956 652 0.018756916778646798
156 652 0.037513833557293499
448 652 0.068729249664059799
652 652 0.75
95 652 0.018756916778646798
387 652 0.018756916778646798
136 660 0.022909749888019901
84 660 0.056270750335940298
202 660 0.022909749888019901
934 660 0.037513833557293499
660 660 0.76245849932811904
454 660 0.056270750335940298
52 660 0.022909749888019901
994 660 0.018756916778646701
931 454 0.045819499776039802
42 454 0.037513833557293499
291 454 0.018756916778646798
929 454 0.037513833557293499
660 454 0.045819499776039802
454 454 0.77290974988801997
52 454 0.022909749888019901
522 454 0.018756916778646798
895 662 0.068729249664059799
715 662 0.037513833557293499
662 662 0.66666666666666696
167 662 0.037513833557293499
298 662 0.037513833557293499
980 662 0.045819499776039802
266 662 0.045819499776039802
762 662 0.018756916778646798
497 662 0.022909749888019901
29 662 0.018756916778646798
342 167 0.045819499776039802
239 167 0.056270750335940298
662 167 0.045819499776039802
167 167 0.68542358344531296
733 167 0.018756916778646701
347 167 0.045819499776039802
266 167 0.022909749888019901
182 167 0.018756916778646701
85 167 0.018756916778646701
746 167 0.022909749888019901
29 167 0.018756916778646798
212 298 0.068729249664059799
91 298 0.037513833557293499
662 298 0.045819499776039802
298 298 0.68127075033593998
733 298 0.018756916778646701
422 298 0.045819499776039802
266 298 0.022909749888019901
182 298 0.018756916778646701
762 298 0.018756916778646798
654 298 0.022909749888019901
330 298 0.018756916778646701
244 733 0.045819499776039802
922 733 0.056270750335940298
167 733 0.068729249664059799
298 733 0.068729249664059799
733 733 0.61669433378125404
1006 733 0.045819499776039802
182 733 0.037513833557293499
85 733 0.018756916778646798
215 733 0.022909749888019901
330 733 0.018756916778646798
774 639 0.068729249664059702
18 639 0.037513833557293499
639 639 0.62084716689062702
998 639 0.056270750335940298
178 639 0.056270750335940298
878 639 0.045819499776039802
113 639 0.045819499776039802
967 639 0.022909749888019901
157 639 0.022909749888019901
21 639 0.022909749888019901
23 998 0.045819499776039802
109 998 0.056270750335940298
639 998 0.022909749888019901
998 998 0.68127075033593998
462 998 0.037513833557293499
274 998 0.045819499776039802
113 998 0.022909749888019901
802 998 0.018756916778646798
602 998 0.022909749888019901
147 998 0.022909749888019901
21 998 0.022909749888019901
630 178 0.068729249664059799
475 178 0.037513833557293499
639 178 0.022909749888019901
178 178 0.677117917226567
462 178 0.037513833557293499
804 178 0.045819499776039802
113 178 0.022909749888019901
802 178 0.018756916778646798
967 178 0.022909749888019901
622 178 0.022909749888019901
913 178 0.022909749888019901
203 462 0.045819499776039802
899 462 0.056270750335940298
998 462 0.045819499776039802
178 462 0.045819499776039802
462 462 0.65420816733854703
891 462 0.045819499776039802
802 462 0.037513833557293499
602 462 0.022909749888019901
384 462 0.022909749888019901
913 462 0.022909749888019901
561 866 0.068729249664059702
349 866 0.037513833557293499
866 866 0.64790974988801997
16 866 0.037513833557293499
183 866 0.037513833557293499
368 866 0.068729249664059702
731 866 0.045819499776039802
678 866 0.018756916778646798
169 866 0.018756916778646798
609 866 0.018756916778646798
539 16 0.045819499776039802
161 16 0.056270750335940298
866 16 0.045819499776039802
16 16 0.66666666666666696
542 16 0.018756916778646798
80 16 0.068729249664059702
731 16 0.022909749888019901
359 16 0.018756916778646798
154 16 0.018756916778646798
326 16 0.018756916778646798
609 16 0.018756916778646798
586 183 0.068729249664059702
191 183 0.037513833557293499
866 183 0.045819499776039802
183 183 0.66251383355729299
542 183 0.018756916778646798
108 183 0.068729249664059702
731 183 0.022909749888019901
359 183 0.018756916778646798
678 183 0.018756916778646798
751 183 0.018756916778646798
646 183 0.018756916778646798
279 542 0.045819499776039802
583 542 0.056270750335940298
16 542 0.068729249664059799
183 542 0.068729249664059799
542 542 0.59793741700260705
210 542 0.068729249664059799
359 542 0.037513833557293499
154 542 0.018756916778646798
917 542 0.018756916778646798
646 542 0.018756916778646798
354 669 0.068729249664059702
671 669 0.037513833557293499
669 669 0.60209025011198003
69 669 0.056270750335940298
742 669 0.056270750335940298
31 669 0.068729249664059702
395 669 0.045819499776039802
72 669 0.022909749888019901
381 669 0.018756916778646798
822 669 0.022909749888019901
770 69 0.045819499776039802
566 69 0.056270750335940298
669 69 0.022909749888019901
69 69 0.66251383355729299
482 69 0.037513833557293499
548 69 0.068729249664059799
395 69 0.022909749888019901
9 69 0.018756916778646798
968 69 0.022909749888019901
460 69 0.018756916778646798
822 69 0.022909749888019901
564 742 0.068729249664059799
687 742 0.037513833557293499
669 742 0.022909749888019901
742 742 0.65836100044792001
482 742 0.037513833557293499
424 742 0.068729249664059799
395 742 0.022909749888019901
9 742 0.018756916778646798
72 742 0.022909749888019901
942 742 0.018756916778646798
390 742 0.022909749888019901
273 482 0.045819499776039802
322 482 0.056270750335940298
69 482 0.045819499776039802
742 482 0.045819499776039802
482 482 0.63545125055990004
954 482 0.068729249664059799
9 482 0.037513833557293499
968 482 0.022909749888019901
476 482 0.018756916778646798
390 482 0.022909749888019901
188 980 0.068729249664059799
716 980 0.037513833557293499
662 980 0.056270750335940298
980 980 0.65621541610676604
347 980 0.037513833557293499
422 980 0.037513833557293499
503 980 0.045819499776039802
307 980 0.018756916778646798
497 980 0.022909749888019901
339 980 0.018756916778646798
71 347 0.045819499776039802
46 347 0.056270750335940298
167 347 0.056270750335940298
980 347 0.045819499776039802
347 347 0.67497233288541303
1006 347 0.018756916778646798
503 347 0.022909749888019901
165 347 0.018756916778646798
120 347 0.018756916778646798
746 347 0.022909749888019901
339 347 0.018756916778646798
160 422 0.068729249664059799
649 422 0.037513833557293499
298 422 0.056270750335940298
980 422 0.045819499776039802
422 422 0.67081949977604005
1006 422 0.018756916778646798
503 422 0.022909749888019901
165 422 0.018756916778646798
307 422 0.018756916778646798
654 422 0.022909749888019901
177 422 0.018756916778646798
65 1006 0.045819499776039802
927 1006 0.056270750335940298
733 1006 0.056270750335940298
347 1006 0.068729249664059702
422 1006 0.068729249664059702
1006 1006 0.60624308322135301
165 1006 0.037513833557293499
120 1006 0.018756916778646798
215 1006 0.022909749888019901
177 1006 0.018756916778646798
795 878 0.068729249664059799
720 878 0.037513833557293499
639 878 0.056270750335940298
878 878 0.61039591633072598
274 878 0.056270750335940298
804 878 0.056270750335940298
784 878 0.045819499776039802
234 878 0.022909749888019901
157 878 0.022909749888019901
948 878 0.022909749888019901
507 274 0.045819499776039802
301 274 0.056270750335940298
998 274 0.056270750335940298
878 274 0.022909749888019901
274 274 0.67081949977604005
891 274 0.037513833557293499
784 274 0.022909749888019901
846 274 0.018756916778646798
732 274 0.022909749888019901
147 274 0.022909749888019901
948 274 0.022909749888019901
303 804 0.068729249664059702
172 804 0.037513833557293499
178 804 0.056270750335940298
878 804 0.022909749888019901
804 804 0.66666666666666696
891 804 0.037513833557293499
784 804 0.022909749888019901
846 804 0.018756916778646798
234 804 0.022909749888019901
622 804 0.022909749888019901
471 804 0.022909749888019901
576 891 0.045819499776039802
604 891 0.056270750335940298
462 891 0.056270750335940298
274 891 0.045819499776039802
804 891 0.045819499776039802
891 891 0.64375691677864699
846 891 0.037513833557293499
732 891 0.022909749888019901
384 891 0.022909749888019901
471 891 0.022909749888019901
420 368 0.068729249664059799
997 368 0.037513833557293499
866 368 0.037513833557293499
368 368 0.67912516599478601
80 368 0.037513833557293499
108 368 0.037513833557293499
814 368 0.045819499776039802
304 368 0.018756916778646798
169 368 0.018756916778646798
290 368 0.018756916778646798
775 80 0.045819499776039802
943 80 0.056270750335940298
16 80 0.037513833557293499
368 80 0.045819499776039802
80 80 0.697882082773433
210 80 0.018756916778646798
814 80 0.022909749888019901
611 80 0.018756916778646798
597 80 0.018756916778646798
326 80 0.018756916778646798
290 80 0.018756916778646798
620 108 0.068729249664059799
323 108 0.037513833557293499
183 108 0.037513833557293499
368 108 0.045819499776039802
108 108 0.69372924966406002
210 108 0.018756916778646798
814 108 0.022909749888019901
611 108 0.018756916778646798
304 108 0.018756916778646798
751 108 0.018756916778646798
367 108 0.018756916778646798
480 210 0.045819499776039802
533 210 0.056270750335940298
542 210 0.037513833557293499
80 210 0.068729249664059702
108 210 0.068729249664059702
210 210 0.62915283310937298
611 210 0.037513833557293499
597 210 0.018756916778646798
917 210 0.018756916778646798
367 210 0.018756916778646798
197 31 0.068729249664059799
54 31 0.037513833557293499
669 31 0.037513833557293499
31 31 0.63330566621874596
548 31 0.056270750335940298
424 31 0.056270750335940298
95 31 0.045819499776039802
606 31 0.022909749888019901
381 31 0.018756916778646798
614 31 0.022909749888019901
135 548 0.045819499776039802
419 548 0.056270750335940298
69 548 0.037513833557293499
31 548 0.022909749888019901
548 548 0.69372924966406002
954 548 0.037513833557293499
95 548 0.022909749888019901
52 548 0.018756916778646798
588 548 0.022909749888019901
460 548 0.018756916778646701
614 548 0.022909749888019901
816 424 0.068729249664059799
1000 424 0.037513833557293499
742 424 0.037513833557293499
31 424 0.022909749888019901
424 424 0.68957641655468604
954 424 0.037513833557293499
95 424 0.022909749888019901
52 424 0.018756916778646798
606 424 0.022909749888019901
942 424 0.018756916778646701
153 424 0.022909749888019901
1014 954 0.045819499776039802
859 954 0.056270750335940298
482 954 0.037513833557293499
548 954 0.045819499776039802
424 954 0.045819499776039802
954 954 0.66666666666666696
52 954 0.037513833557293499
588 954 0.022909749888019901
476 954 0.018756916778646701
153 954 0.022909749888019901
1009 266 0.068729249664059799
180 266 0.037513833557293499
587 266 0.068729249664059799
151 266 0.037513833557293499
662 266 0.0916389995520797
167 266 0.037513833557293499
298 266 0.037513833557293499
266 266 0.51460408366927402
503 266 0.045819499776039802
762 266 0.018756916778646798
796 266 0.022909749888019901
29 266 0.018756916778646798
856 182 0.045819499776039802
265 182 0.056270750335940298
494 182 0.045819499776039802
528 182 0.056270750335940298
167 182 0.068729249664059799
298 182 0.068729249664059799
733 182 0.037513833557293499
182 182 0.51460408366927402
165 182 0.045819499776039802
85 182 0.018756916778646798
415 182 0.022909749888019901
330 182 0.018756916778646798
11 113 0.068729249664059702
755 113 0.037513833557293499
847 113 0.068729249664059702
906 113 0.037513833557293499
639 113 0.045819499776039802
998 113 0.056270750335940298
178 113 0.056270750335940298
113 113 0.51460408366927302
784 113 0.045819499776039802
967 113 0.022909749888019901
898 113 0.022909749888019901
21 113 0.022909749888019901
8 802 0.045819499776039802
965 802 0.056270750335940298
658 802 0.045819499776039802
857 802 0.056270750335940298
998 802 0.045819499776039802
178 802 0.045819499776039802
462 802 0.075027667114586999
802 802 0.51460408366927402
846 802 0.045819499776039802
602 802 0.022909749888019901
316 802 0.022909749888019901
913 802 0.022909749888019901
582 731 0.068729249664059702
250 731 0.037513833557293499
624 731 0.068729249664059702
176 731 0.037513833557293499
866 731 0.0916389995520797
16 731 0.037513833557293499
183 731 0.037513833557293499
731 731 0.49584716689062702
814 731 0.068729249664059702
678 731 0.018756916778646798
351 731 0.018756916778646798
609 731 0.018756916778646798
812 359 0.045819499776039802
578 359 0.056270750335940298
314 359 0.045819499776039802
692 359 0.056270750335940298
16 359 0.068729249664059799
183 359 0.068729249664059799
542 359 0.037513833557293499
359 359 0.49584716689062702
611 359 0.068729249664059799
154 359 0.018756916778646798
487 359 0.018756916778646798
646 359 0.018756916778646798
546 395 0.068729249664059702
648 395 0.037513833557293499
403 395 0.068729249664059702
156 395 0.037513833557293499
669 395 0.045819499776039802
69 395 0.056270750335940298
742 395 0.056270750335940298
395 395 0.49584716689062702
95 395 0.068729249664059702
72 395 0.022909749888019901
55 395 0.018756916778646798
822 395 0.022909749888019901
623 9 0.045819499776039802
963 9 0.056270750335940298
934 9 0.045819499776039802
929 9 0.056270750335940298
69 9 0.045819499776039802
742 9 0.045819499776039802
482 9 0.075027667114586999
9 9 0.49584716689062702
52 9 0.068729249664059799
968 9 0.022909749888019901
759 9 0.018756916778646798
390 9 0.022909749888019901
499 503 0.068729249664059799
350 503 0.037513833557293499
372 503 0.068729249664059799
504 503 0.037513833557293499
980 503 0.0916389995520797
347 503 0.037513833557293499
422 503 0.037513833557293499
266 503 0.056270750335940298
503 503 0.50415283310937298
307 503 0.018756916778646798
796 503 0.022909749888019901
339 503 0.018756916778646798
143 165 0.045819499776039802
995 165 0.056270750335940298
379 165 0.045819499776039802
585 165 0.056270750335940298
347 165 0.068729249664059702
422 165 0.068729249664059702
1006 165 0.037513833557293499
182 165 0.056270750335940298
165 165 0.50415283310937298
120 165 0.018756916778646798
415 165 0.022909749888019901
177 165 0.018756916778646798
937 784 0.068729249664059799
1001 784 0.037513833557293499
1005 784 0.068729249664059799
358 784 0.037513833557293499
878 784 0.045819499776039802
274 784 0.056270750335940298
804 784 0.056270750335940298
113 784 0.056270750335940298
784 784 0.50415283310937298
234 784 0.022909749888019901
898 784 0.022909749888019901
948 784 0.022909749888019901
698 846 0.045819499776039802
843 846 0.056270750335940298
473 846 0.045819499776039802
110 846 0.056270750335940298
274 846 0.045819499776039802
804 846 0.045819499776039802
891 846 0.075027667114586999
802 846 0.056270750335940298
846 846 0.50415283310937298
732 846 0.022909749888019901
316 846 0.022909749888019901
471 846 0.022909749888019901
961 814 0.068729249664059799
636 814 0.037513833557293499
486 814 0.068729249664059799
166 814 0.037513833557293499
368 814 0.0916389995520797
80 814 0.037513833557293499
108 814 0.037513833557293499
731 814 0.037513833557293499
814 814 0.52706258299739295
304 814 0.018756916778646798
351 814 0.018756916778646798
290 814 0.018756916778646798
904 611 0.045819499776039802
37 611 0.056270750335940298
747 611 0.045819499776039802
82 611 0.056270750335940298
80 611 0.068729249664059702
108 611 0.068729249664059702
210 611 0.037513833557293499
359 611 0.037513833557293499
611 611 0.52706258299739295
597 611 0.018756916778646798
487 611 0.018756916778646798
367 611 0.018756916778646798
974 95 0.068729249664059799
81 95 0.037513833557293499
448 95 0.068729249664059799
652 95 0.037513833557293499
31 95 0.045819499776039802
548 95 0.056270750335940298
424 95 0.056270750335940298
395 95 0.037513833557293499
95 95 0.52706258299739295
606 95 0.022909749888019901
55 95 0.018756916778646798
614 95 0.022909749888019901
433 52 0.045819499776039802
848 52 0.056270750335940298
660 52 0.045819499776039802
454 52 0.056270750335940298
548 52 0.045819499776039802
424 52 0.045819499776039802
954 52 0.075027667114586999
9 52 0.037513833557293499
52 52 0.52706258299739295
588 52 0.022909749888019901
759 52 0.018756916778646701
153 52 0.022909749888019901
248 762 0.045819499776039802
763 762 0.037513833557293499
404 762 0.068729249664059799
77 762 0.037513833557293499
62 762 0.018756916778646798
662 762 0.045819499776039802
298 762 0.037513833557293499
266 762 0.022909749888019901
762 762 0.56042358344531296
85 762 0.037513833557293499
307 762 0.045819499776039802
534 762 0.018756916778646701
87 762 0.022909749888019901
650 85 0.045819499776039802
75 85 0.037513833557293499
702 85 0.045819499776039802
865 85 0.056270750335940298
181 85 0.018756916778646798
167 85 0.068729249664059799
733 85 0.018756916778646798
182 85 0.018756916778646798
762 85 0.068729249664059799
85 85 0.53336100044792001
120 85 0.045819499776039802
534 85 0.018756916778646798
707 85 0.022909749888019901
560 967 0.068729249664059702
129 967 0.018756916778646798
289 967 0.068729249664059702
849 967 0.037513833557293499
530 967 0.018756916778646798
639 967 0.022909749888019901
178 967 0.056270750335940298
113 967 0.022909749888019901
967 967 0.53751383355729299
602 967 0.056270750335940298
234 967 0.045819499776039802
366 967 0.022909749888019901
827 967 0.022909749888019901
989 602 0.068729249664059799
615 602 0.018756916778646798
865 602 0.056270750335940298
105 602 0.045819499776039802
791 602 0.018756916778646798
998 602 0.045819499776039802
462 602 0.037513833557293499
802 602 0.018756916778646798
967 602 0.045819499776039802
602 602 0.552117917226567
732 602 0.045819499776039802
366 602 0.022909749888019901
707 602 0.022909749888019901
295 678 0.022909749888019901
807 678 0.056270750335940298
612 678 0.068729249664059702
200 678 0.037513833557293499
718 678 0.022909749888019901
866 678 0.045819499776039802
183 678 0.037513833557293499
731 678 0.022909749888019901
678 678 0.54166666666666696
154 678 0.037513833557293499
304 678 0.068729249664059702
613 678 0.018756916778646798
610 678 0.018756916778646798
571 154 0.022909749888019901
556 154 0.056270750335940298
849 154 0.056270750335940298
892 154 0.045819499776039802
340 154 0.022909749888019901
16 154 0.068729249664059799
542 154 0.018756916778646798
359 154 0.018756916778646798
678 154 0.068729249664059799
154 154 0.51460408366927402
597 154 0.068729249664059799
613 154 0.018756916778646798
827 154 0.018756916778646798
89 72 0.045819499776039802
430 72 0.037513833557293499
200 72 0.037513833557293499
334 72 0.068729249664059702
905 72 0.022909749888019901
669 72 0.022909749888019901
742 72 0.056270750335940298
395 72 0.022909749888019901
72 72 0.51875691677864699
968 72 0.056270750335940298
606 72 0.068729249664059702
792 72 0.022909749888019901
610 72 0.018756916778646798
977 968 0.045819499776039802
869 968 0.037513833557293499
77 968 0.056270750335940298
320 968 0.045819499776039802
531 968 0.022909749888019901
69 968 0.045819499776039802
482 968 0.037513833557293499
9 968 0.018756916778646798
72 968 0.045819499776039802
968 968 0.53336100044792001
588 968 0.068729249664059799
792 968 0.022909749888019901
87 968 0.018756916778646798
996 307 0.045819499776039802
466 307 0.037513833557293499
320 307 0.037513833557293499
939 307 0.068729249664059799
944 307 0.018756916778646798
980 307 0.045819499776039802
422 307 0.037513833557293499
503 307 0.022909749888019901
762 307 0.056270750335940298
307 307 0.54997233288541303
120 307 0.037513833557293499
243 307 0.018756916778646798
87 307 0.022909749888019901
867 120 0.045819499776039802
876 120 0.037513833557293499
105 120 0.056270750335940298
594 120 0.045819499776039802
705 120 0.018756916778646798
347 120 0.068729249664059702
1006 120 0.018756916778646798
165 120 0.018756916778646798
85 120 0.056270750335940298
307 120 0.068729249664059702
120 120 0.52290974988801997
243 120 0.018756916778646798
707 120 0.022909749888019901
86 234 0.068729249664059799
146 234 0.018756916778646798
892 234 0.037513833557293499
580 234 0.068729249664059799
641 234 0.018756916778646798
878 234 0.022909749888019901
804 234 0.056270750335940298
784 234 0.022909749888019901
967 234 0.056270750335940298
234 234 0.52706258299739295
732 234 0.056270750335940298
676 234 0.022909749888019901
827 234 0.022909749888019901
435 732 0.068729249664059702
259 732 0.018756916778646798
702 732 0.056270750335940298
594 732 0.045819499776039802
152 732 0.018756916778646798
274 732 0.045819499776039802
891 732 0.037513833557293499
846 732 0.018756916778646798
602 732 0.056270750335940298
234 732 0.045819499776039802
732 732 0.54166666666666696
676 732 0.022909749888019901
707 732 0.022909749888019901
800 304 0.022909749888019901
88 304 0.056270750335940298
334 304 0.037513833557293499
352 304 0.068729249664059799
66 304 0.022909749888019901
368 304 0.045819499776039802
108 304 0.037513833557293499
814 304 0.022909749888019901
678 304 0.037513833557293499
304 304 0.572882082773433
597 304 0.037513833557293499
834 304 0.018756916778646798
610 304 0.018756916778646798
171 597 0.022909749888019901
124 597 0.056270750335940298
289 597 0.056270750335940298
580 597 0.045819499776039802
355 597 0.022909749888019901
80 597 0.068729249664059702
210 597 0.018756916778646798
611 597 0.018756916778646798
154 597 0.037513833557293499
304 597 0.068729249664059702
597 597 0.54581949977604005
834 597 0.018756916778646798
827 597 0.018756916778646798
640 606 0.045819499776039802
949 606 0.037513833557293499
612 606 0.037513833557293499
352 606 0.068729249664059799
696 606 0.022909749888019901
31 606 0.022909749888019901
424 606 0.056270750335940298
95 606 0.022909749888019901
72 606 0.037513833557293499
606 606 0.54997233288541303
588 606 0.056270750335940298
281 606 0.022909749888019901
610 606 0.018756916778646798
493 588 0.045819499776039802
51 588 0.037513833557293499
404 588 0.056270750335940298
939 588 0.045819499776039802
335 588 0.022909749888019901
548 588 0.045819499776039802
954 588 0.037513833557293499
52 588 0.018756916778646798
968 588 0.037513833557293499
606 588 0.045819499776039802
588 588 0.56457641655468704
281 588 0.022909749888019901
87 588 0.018756916778646701
933 532 0.037513833557293499
409 532 0.045819499776039802
544 532 0.022909749888019901
624 532 0.037513833557293499
486 532 0.068729249664059799
532 532 0.65206258299739295
421 532 0.037513833557293499
767 532 0.056270750335940298
351 532 0.018756916778646798
338 532 0.022909749888019901
112 421 0.018756916778646798
288 421 0.068729249664059702
749 421 0.018756916778646798
176 421 0.037513833557293499
166 421 0.068729249664059702
532 421 0.068729249664059702
421 421 0.62084716689062702
491 421 0.056270750335940298
351 421 0.018756916778646798
418 421 0.022909749888019901
56 102 0.056270750335940298
458 102 0.022909749888019901
205 102 0.022909749888019901
314 102 0.037513833557293499
747 102 0.068729249664059799
102 102 0.63330566621874596
221 102 0.056270750335940298
76 102 0.056270750335940298
487 102 0.022909749888019901
920 102 0.022909749888019901
308 221 0.037513833557293499
256 221 0.045819499776039802
928 221 0.018756916778646798
692 221 0.037513833557293499
82 221 0.068729249664059702
102 221 0.045819499776039802
221 221 0.64375691677864699
901 221 0.056270750335940298
487 221 0.022909749888019901
382 221 0.022909749888019901
981 953 0.037513833557293499
229 953 0.045819499776039802
616 953 0.022909749888019901
403 953 0.037513833557293499
448 953 0.068729249664059799
953 953 0.67497233288541303
387 953 0.037513833557293499
665 953 0.037513833557293499
55 953 0.018756916778646798
292 953 0.018756916778646798
765 387 0.018756916778646798
225 387 0.068729249664059702
261 387 0.018756916778646798
156 387 0.037513833557293499
652 387 0.068729249664059702
953 387 0.068729249664059702
387 387 0.64375691677864699
247 387 0.037513833557293499
55 387 0.018756916778646798
778 387 0.018756916778646798
919 994 0.056270750335940298
79 994 0.022909749888019901
607 994 0.022909749888019901
934 994 0.037513833557293499
660 994 0.068729249664059799
994 994 0.65621541610676604
522 994 0.056270750335940298
168 994 0.037513833557293499
759 994 0.022909749888019901
92 994 0.018756916778646798
840 522 0.037513833557293499
756 522 0.045819499776039802
753 522 0.018756916778646798
929 522 0.037513833557293499
454 522 0.068729249664059799
994 522 0.045819499776039802
522 522 0.66666666666666696
427 522 0.037513833557293499
759 522 0.022909749888019901
758 522 0.018756916778646701
988 767 0.037513833557293499
238 767 0.045819499776039802
365 767 0.022909749888019901
587 767 0.056270750335940298
372 767 0.045819499776039802
532 767 0.045819499776039802
767 767 0.66666666666666696
491 767 0.037513833557293499
796 767 0.018756916778646701
338 767 0.022909749888019901
930 491 0.018756916778646798
170 491 0.068729249664059799
190 491 0.018756916778646798
151 491 0.056270750335940298
504 491 0.045819499776039802
421 491 0.045819499776039802
767 491 0.068729249664059799
491 491 0.63545125055990004
796 491 0.018756916778646798
418 491 0.022909749888019901
127 76 0.056270750335940298
173 76 0.022909749888019901
216 76 0.022909749888019901
494 76 0.056270750335940298
379 76 0.045819499776039802
102 76 0.045819499776039802
76 76 0.64790974988801997
901 76 0.056270750335940298
415 76 0.022909749888019901
920 76 0.022909749888019901
211 901 0.037513833557293499
793 901 0.045819499776039802
17 901 0.018756916778646798
528 901 0.056270750335940298
585 901 0.045819499776039802
221 901 0.045819499776039802
76 901 0.045819499776039802
901 901 0.65836100044792001
415 901 0.022909749888019901
382 901 0.022909749888019901
329 665 0.037513833557293499
484 665 0.045819499776039802
284 665 0.022909749888019901
847 665 0.056270750335940298
1005 665 0.045819499776039802
953 665 0.068729249664059702
665 665 0.64790974988801997
247 665 0.037513833557293499
898 665 0.018756916778646798
292 665 0.018756916778646798
411 247 0.018756916778646798
712 247 0.068729249664059799
808 247 0.018756916778646798
906 247 0.056270750335940298
358 247 0.045819499776039802
387 247 0.068729249664059799
665 247 0.068729249664059799
247 247 0.61669433378125404
898 247 0.018756916778646798
778 247 0.018756916778646798
282 168 0.056270750335940298
868 168 0.022909749888019901
508 168 0.022909749888019901
658 168 0.056270750335940298
473 168 0.045819499776039802
994 168 0.068729249664059702
168 168 0.62915283310937298
427 168 0.056270750335940298
316 168 0.022909749888019901
92 168 0.018756916778646798
364 427 0.037513833557293499
935 427 0.045819499776039802
521 427 0.018756916778646798
857 427 0.056270750335940298
110 427 0.045819499776039802
522 427 0.068729249664059799
168 427 0.045819499776039802
427 427 0.63960408366927402
316 427 0.022909749888019901
758 427 0.018756916778646798
89 169 0.037513833557293499
640 169 0.068729249664059702
866 169 0.037513833557293499
368 169 0.068729249664059702
169 169 0.54997233288541303
326 169 0.037513833557293499
751 169 0.037513833557293499
497 169 0.056270750335940298
351 169 0.045819499776039802
610 169 0.018756916778646798
952 169 0.022909749888019901
509 169 0.018756916778646798
560 326 0.056270750335940298
86 326 0.045819499776039802
16 326 0.037513833557293499
80 326 0.068729249664059702
169 326 0.045819499776039802
326 326 0.56872924966406002
917 326 0.018756916778646798
746 326 0.056270750335940298
351 326 0.022909749888019901
487 326 0.018756916778646798
827 326 0.018756916778646798
821 326 0.022909749888019901
509 326 0.018756916778646798
430 751 0.037513833557293499
949 751 0.068729249664059702
183 751 0.037513833557293499
108 751 0.068729249664059702
169 751 0.045819499776039802
751 751 0.56457641655468604
917 751 0.018756916778646798
654 751 0.056270750335940298
351 751 0.022909749888019901
487 751 0.018756916778646798
610 751 0.018756916778646798
321 751 0.022909749888019901
490 751 0.018756916778646798
129 917 0.056270750335940298
146 917 0.045819499776039802
542 917 0.037513833557293499
210 917 0.068729249664059799
326 917 0.068729249664059799
751 917 0.068729249664059799
917 917 0.5
215 917 0.056270750335940298
487 917 0.037513833557293499
827 917 0.018756916778646798
523 917 0.022909749888019901
490 917 0.018756916778646798
295 381 0.037513833557293499
800 381 0.068729249664059702
669 381 0.037513833557293499
31 381 0.068729249664059702
381 381 0.52706258299739295
460 381 0.056270750335940298
942 381 0.056270750335940298
157 381 0.037513833557293499
55 381 0.045819499776039802
610 381 0.022909749888019901
841 381 0.018756916778646798
447 381 0.022909749888019901
248 460 0.056270750335940298
996 460 0.045819499776039802
69 460 0.037513833557293499
548 460 0.068729249664059799
381 460 0.022909749888019901
460 460 0.58748616644270601
476 460 0.037513833557293499
147 460 0.037513833557293499
55 460 0.022909749888019901
759 460 0.018756916778646798
87 460 0.022909749888019901
916 460 0.018756916778646798
447 460 0.022909749888019901
807 942 0.037513833557293499
88 942 0.068729249664059799
742 942 0.037513833557293499
424 942 0.068729249664059799
381 942 0.022909749888019901
942 942 0.58333333333333304
476 942 0.037513833557293499
622 942 0.037513833557293499
55 942 0.022909749888019901
759 942 0.018756916778646798
610 942 0.022909749888019901
407 942 0.018756916778646798
829 942 0.022909749888019901
763 476 0.056270750335940298
466 476 0.045819499776039802
482 476 0.037513833557293499
954 476 0.068729249664059799
460 476 0.045819499776039802
942 476 0.045819499776039802
476 476 0.56042358344531296
384 476 0.037513833557293499
759 476 0.037513833557293499
87 476 0.022909749888019901
464 476 0.018756916778646798
829 476 0.022909749888019901
977 497 0.037513833557293499
493 497 0.068729249664059799
662 497 0.056270750335940298
980 497 0.045819499776039802
169 497 0.045819499776039802
497 497 0.56457641655468604
746 497 0.037513833557293499
654 497 0.037513833557293499
796 497 0.045819499776039802
87 497 0.018756916778646798
952 497 0.022909749888019901
385 497 0.018756916778646798
989 746 0.056270750335940298
435 746 0.045819499776039802
167 746 0.056270750335940298
347 746 0.045819499776039802
326 746 0.045819499776039802
497 746 0.045819499776039802
746 746 0.58333333333333304
215 746 0.018756916778646798
796 746 0.022909749888019901
415 746 0.018756916778646798
707 746 0.018756916778646798
821 746 0.022909749888019901
385 746 0.018756916778646798
869 654 0.037513833557293499
51 654 0.068729249664059799
298 654 0.056270750335940298
422 654 0.045819499776039802
751 654 0.045819499776039802
497 654 0.045819499776039802
654 654 0.57918050022395995
215 654 0.018756916778646798
796 654 0.022909749888019901
415 654 0.018756916778646798
87 654 0.018756916778646798
321 654 0.022909749888019901
318 654 0.018756916778646798
615 215 0.056270750335940298
259 215 0.045819499776039802
733 215 0.056270750335940298
1006 215 0.045819499776039802
917 215 0.045819499776039802
746 215 0.068729249664059702
654 215 0.068729249664059702
215 215 0.51460408366927302
415 215 0.037513833557293499
707 215 0.018756916778646798
523 215 0.022909749888019901
318 215 0.018756916778646798
571 157 0.037513833557293499
171 157 0.068729249664059799
639 157 0.056270750335940298
878 157 0.045819499776039802
381 157 0.068729249664059799
157 157 0.5
147 157 0.056270750335940298
622 157 0.056270750335940298
898 157 0.045819499776039802
827 157 0.022909749888019901
841 157 0.018756916778646798
844 157 0.022909749888019901
650 147 0.056270750335940298
867 147 0.045819499776039802
998 147 0.056270750335940298
274 147 0.045819499776039802
460 147 0.068729249664059702
157 147 0.022909749888019901
147 147 0.56042358344531296
384 147 0.037513833557293499
898 147 0.022909749888019901
316 147 0.018756916778646798
707 147 0.022909749888019901
916 147 0.018756916778646798
844 147 0.022909749888019901
556 622 0.037513833557293499
124 622 0.068729249664059702
178 622 0.056270750335940298
804 622 0.045819499776039802
942 622 0.068729249664059702
157 622 0.022909749888019901
622 622 0.55627075033593998
384 622 0.037513833557293499
898 622 0.022909749888019901
316 622 0.018756916778646798
827 622 0.022909749888019901
407 622 0.018756916778646798
134 622 0.022909749888019901
75 384 0.056270750335940298
876 384 0.045819499776039802
462 384 0.056270750335940298
891 384 0.045819499776039802
476 384 0.068729249664059702
147 384 0.045819499776039802
622 384 0.045819499776039802
384 384 0.53336100044792001
316 384 0.037513833557293499
707 384 0.022909749888019901
464 384 0.018756916778646798
134 384 0.022909749888019901
905 351 0.037513833557293499
696 351 0.068729249664059702
731 351 0.037513833557293499
814 351 0.068729249664059702
532 351 0.068729249664059702
421 351 0.037513833557293499
169 351 0.0916389995520797
326 351 0.037513833557293499
751 351 0.037513833557293499
351 351 0.39790974988802003
796 351 0.056270750335940298
610 351 0.018756916778646798
413 351 0.022909749888019901
509 351 0.018756916778646798
530 487 0.056270750335940298
641 487 0.045819499776039802
359 487 0.037513833557293499
611 487 0.068729249664059799
102 487 0.045819499776039802
221 487 0.056270750335940298
326 487 0.068729249664059799
751 487 0.068729249664059799
917 487 0.037513833557293499
487 487 0.39790974988802003
415 487 0.056270750335940298
827 487 0.018756916778646798
388 487 0.022909749888019901
490 487 0.018756916778646798
718 55 0.037513833557293499
66 55 0.068729249664059702
395 55 0.037513833557293499
95 55 0.068729249664059702
953 55 0.068729249664059702
387 55 0.037513833557293499
381 55 0.045819499776039802
460 55 0.056270750335940298
942 55 0.056270750335940298
55 55 0.42081949977604
898 55 0.037513833557293499
610 55 0.022909749888019901
423 55 0.018756916778646798
447 55 0.022909749888019901
62 759 0.056270750335940298
944 759 0.045819499776039802
9 759 0.037513833557293499
52 759 0.068729249664059799
994 759 0.045819499776039802
522 759 0.056270750335940298
460 759 0.045819499776039802
942 759 0.045819499776039802
476 759 0.075027667114586999
759 759 0.42081949977604
316 759 0.037513833557293499
87 759 0.022909749888019901
563 759 0.018756916778646798
829 759 0.022909749888019901
531 796 0.037513833557293499
335 796 0.068729249664059799
266 796 0.056270750335940298
503 796 0.045819499776039802
767 796 0.068729249664059799
491 796 0.037513833557293499
497 796 0.0916389995520797
746 796 0.037513833557293499
654 796 0.037513833557293499
351 796 0.045819499776039802
796 796 0.41251383355729299
87 796 0.018756916778646798
413 796 0.022909749888019901
385 796 0.018756916778646798
791 415 0.056270750335940298
152 415 0.045819499776039802
182 415 0.056270750335940298
165 415 0.045819499776039802
76 415 0.045819499776039802
901 415 0.056270750335940298
746 415 0.068729249664059702
654 415 0.068729249664059702
215 415 0.037513833557293499
487 415 0.045819499776039802
415 415 0.41251383355729299
707 415 0.018756916778646798
388 415 0.022909749888019901
318 415 0.018756916778646798
340 898 0.037513833557293499
355 898 0.068729249664059799
113 898 0.056270750335940298
784 898 0.045819499776039802
665 898 0.068729249664059799
247 898 0.037513833557293499
157 898 0.045819499776039802
147 898 0.056270750335940298
622 898 0.056270750335940298
55 898 0.068729249664059799
898 898 0.39375691677864699
827 898 0.022909749888019901
423 898 0.018756916778646798
844 898 0.022909749888019901
181 316 0.056270750335940298
705 316 0.045819499776039802
802 316 0.056270750335940298
846 316 0.045819499776039802
168 316 0.045819499776039802
427 316 0.056270750335940298
147 316 0.045819499776039802
622 316 0.045819499776039802
384 316 0.075027667114586999
759 316 0.068729249664059702
316 316 0.39375691677864699
707 316 0.022909749888019901
563 316 0.018756916778646798
134 316 0.022909749888019901
98 98 0.79581949977604005
159 98 0.037513833557293499
459 98 0.037513833557293499
67 98 0.045819499776039802
985 98 0.018756916778646701
29 98 0.022909749888019901
346 98 0.018756916778646798
914 98 0.022909749888019901
98 159 0.045819499776039802
159 159 0.78751383355729299
432 159 0.037513833557293499
545 159 0.045819499776039802
4 159 0.018756916778646701
29 159 0.022909749888019901
346 159 0.018756916778646798
992 159 0.022909749888019901
98 459 0.068729249664059799
459 459 0.76460408366927402
432 459 0.037513833557293499
57 459 0.045819499776039802
985 459 0.018756916778646798
330 459 0.022909749888019901
824 459 0.018756916778646798
495 459 0.022909749888019901
159 432 0.068729249664059799
459 432 0.045819499776039802
432 432 0.75629841745052695
28 432 0.045819499776039802
4 432 0.018756916778646798
330 432 0.022909749888019901
824 432 0.018756916778646798
601 432 0.022909749888019901
392 392 0.79581949977604005
923 392 0.018756916778646798
378 392 0.056270750335940298
397 392 0.045819499776039802
894 392 0.022909749888019901
21 392 0.018756916778646798
1003 392 0.018756916778646798
249 392 0.022909749888019901
392 923 0.068729249664059702
923 923 0.74584716689062702
663 923 0.056270750335940298
60 923 0.045819499776039802
635 923 0.022909749888019901
21 923 0.018756916778646798
1003 923 0.018756916778646798
713 923 0.022909749888019901
392 378 0.045819499776039802
378 378 0.80627075033593998
663 378 0.018756916778646701
174 378 0.045819499776039802
894 378 0.022909749888019901
913 378 0.018756916778646701
408 378 0.018756916778646701
740 378 0.022909749888019901
923 663 0.045819499776039802
378 663 0.068729249664059799
663 663 0.75629841745052695
823 663 0.045819499776039802
635 663 0.022909749888019901
913 663 0.018756916778646798
408 663 0.018756916778646798
218 663 0.022909749888019901
53 53 0.75415283310937298
697 53 0.056270750335940298
831 53 0.037513833557293499
438 53 0.068729249664059702
150 53 0.018756916778646798
609 53 0.022909749888019901
74 53 0.022909749888019901
121 53 0.018756916778646798
53 697 0.022909749888019901
697 697 0.78751383355729399
699 697 0.037513833557293499
126 697 0.068729249664059799
993 697 0.018756916778646798
609 697 0.022909749888019901
74 697 0.022909749888019901
470 697 0.018756916778646798
53 831 0.068729249664059799
831 831 0.72293741700260705
699 831 0.056270750335940298
309 831 0.068729249664059799
150 831 0.018756916778646798
646 831 0.022909749888019901
958 831 0.022909749888019901
617 831 0.018756916778646798
697 699 0.068729249664059702
831 699 0.022909749888019901
699 699 0.75629841745052695
1004 699 0.068729249664059702
993 699 0.018756916778646798
646 699 0.022909749888019901
958 699 0.022909749888019901
133 699 0.018756916778646798
551 551 0.75415283310937298
836 551 0.037513833557293499
50 551 0.056270750335940298
122 551 0.068729249664059702
826 551 0.022909749888019901
822 551 0.018756916778646798
727 551 0.022909749888019901
137 551 0.018756916778646798
551 836 0.045819499776039802
836 836 0.74584716689062702
803 836 0.056270750335940298
912 836 0.068729249664059702
516 836 0.022909749888019901
822 836 0.018756916778646798
727 836 0.022909749888019901
449 836 0.018756916778646798
551 50 0.045819499776039802
50 50 0.76460408366927402
803 50 0.037513833557293499
488 50 0.068729249664059799
826 50 0.022909749888019901
390 50 0.018756916778646798
960 50 0.022909749888019901
199 50 0.018756916778646798
836 803 0.045819499776039802
50 803 0.045819499776039802
803 803 0.75629841745052695
208 803 0.068729249664059799
516 803 0.022909749888019901
390 803 0.018756916778646798
960 803 0.022909749888019901
711 803 0.018756916778646798
98 67 0.056270750335940298
67 67 0.78536824921613901
545 67 0.037513833557293499
57 67 0.037513833557293499
656 67 0.018756916778646798
339 67 0.022909749888019901
889 67 0.018756916778646798
914 67 0.022909749888019901
159 545 0.056270750335940298
67 545 0.045819499776039802
545 545 0.77706258299739295
28 545 0.037513833557293499
125 545 0.018756916778646798
339 545 0.022909749888019901
889 545 0.018756916778646798
992 545 0.022909749888019901
459 57 0.056270750335940298
67 57 0.068729249664059702
57 57 0.75415283310937298
28 57 0.037513833557293499
656 57 0.018756916778646798
177 57 0.022909749888019901
979 57 0.018756916778646798
495 57 0.022909749888019901
432 28 0.056270750335940298
545 28 0.068729249664059702
57 28 0.045819499776039802
28 28 0.74584716689062702
125 28 0.018756916778646798
177 28 0.022909749888019901
979 28 0.018756916778646798
601 28 0.022909749888019901
392 397 0.056270750335940298
397 397 0.78536824921613901
60 397 0.018756916778646798
174 397 0.056270750335940298
839 397 0.022909749888019901
948 397 0.018756916778646798
838 397 0.018756916778646798
249 397 0.022909749888019901
923 60 0.056270750335940298
397 60 0.068729249664059799
60 60 0.73539591633072598
823 60 0.056270750335940298
132 60 0.022909749888019901
948 60 0.018756916778646798
838 60 0.018756916778646798
713 60 0.022909749888019901
378 174 0.056270750335940298
397 174 0.045819499776039802
174 174 0.79581949977604005
823 174 0.018756916778646798
839 174 0.022909749888019901
471 174 0.018756916778646798
595 174 0.018756916778646798
740 174 0.022909749888019901
663 823 0.056270750335940298
60 823 0.045819499776039802
174 823 0.068729249664059702
823 823 0.74584716689062702
132 823 0.022909749888019901
471 823 0.018756916778646798
595 823 0.018756916778646798
218 823 0.022909749888019901
53 438 0.037513833557293499
438 438 0.78536824921613901
126 438 0.056270750335940298
309 438 0.037513833557293499
130 438 0.018756916778646798
290 438 0.022909749888019901
684 438 0.022909749888019901
121 438 0.018756916778646798
697 126 0.037513833557293499
438 126 0.022909749888019901
126 126 0.81872924966406002
1004 126 0.037513833557293499
861 126 0.018756916778646701
290 126 0.022909749888019901
684 126 0.022909749888019901
470 126 0.018756916778646701
831 309 0.037513833557293499
438 309 0.068729249664059702
309 309 0.75415283310937298
1004 309 0.056270750335940298
130 309 0.018756916778646798
367 309 0.022909749888019901
978 309 0.022909749888019901
617 309 0.018756916778646798
699 1004 0.037513833557293499
126 1004 0.068729249664059799
309 1004 0.022909749888019901
1004 1004 0.78751383355729399
861 1004 0.018756916778646798
367 1004 0.022909749888019901
978 1004 0.022909749888019901
133 1004 0.018756916778646798
551 122 0.037513833557293499
122 122 0.78536824921613901
912 122 0.037513833557293499
488 122 0.056270750335940298
999 122 0.022909749888019901
614 122 0.018756916778646798
877 122 0.022909749888019901
137 122 0.018756916778646798
836 912 0.037513833557293499
122 912 0.045819499776039802
912 912 0.77706258299739295
208 912 0.056270750335940298
955 912 0.022909749888019901
614 912 0.018756916778646798
877 912 0.022909749888019901
449 912 0.018756916778646798
50 488 0.037513833557293499
122 488 0.045819499776039802
488 488 0.79581949977604005
208 488 0.037513833557293499
999 488 0.022909749888019901
153 488 0.018756916778646798
788 488 0.022909749888019901
199 488 0.018756916778646701
803 208 0.037513833557293499
912 208 0.045819499776039802
488 208 0.045819499776039802
208 208 0.78751383355729299
955 208 0.022909749888019901
153 208 0.018756916778646798
788 208 0.022909749888019901
711 208 0.018756916778646701
477 477 0.625
590 477 0.037513833557293499
264 477 0.037513833557293499
78 477 0.037513833557293499
693 477 0.045819499776039802
405 477 0.045819499776039802
985 477 0.045819499776039802
268 477 0.018756916778646798
502 477 0.045819499776039802
214 477 0.018756916778646798
360 477 0.018756916778646798
815 477 0.022909749888019901
477 590 0.022909749888019901
590 590 0.68542358344531296
921 590 0.018756916778646798
184 590 0.018756916778646798
835 590 0.045819499776039802
405 590 0.022909749888019901
20 590 0.018756916778646798
4 590 0.045819499776039802
436 590 0.018756916778646798
502 590 0.022909749888019901
885 590 0.018756916778646798
629 590 0.018756916778646798
360 590 0.018756916778646798
245 590 0.022909749888019901
477 264 0.022909749888019901
264 264 0.68542358344531296
921 264 0.018756916778646798
810 264 0.018756916778646798
45 264 0.045819499776039802
405 264 0.022909749888019901
20 264 0.018756916778646798
985 264 0.022909749888019901
894 264 0.018756916778646798
664 264 0.018756916778646798
739 264 0.045819499776039802
214 264 0.018756916778646798
686 264 0.018756916778646798
353 264 0.022909749888019901
590 921 0.045819499776039802
264 921 0.045819499776039802
921 921 0.66251383355729299
145 921 0.045819499776039802
20 921 0.037513833557293499
4 921 0.022909749888019901
635 921 0.018756916778646798
685 921 0.018756916778646798
739 921 0.022909749888019901
425 921 0.018756916778646798
629 921 0.018756916778646798
686 921 0.018756916778646798
880 921 0.022909749888019901
477 78 0.022909749888019901
78 78 0.68542358344531296
184 78 0.018756916778646798
810 78 0.018756916778646798
789 78 0.045819499776039802
253 78 0.045819499776039802
985 78 0.022909749888019901
894 78 0.018756916778646798
268 78 0.018756916778646798
502 78 0.022909749888019901
885 78 0.018756916778646798
467 78 0.018756916778646798
107 78 0.018756916778646798
771 78 0.022909749888019901
590 184 0.045819499776039802
78 184 0.045819499776039802
184 184 0.66251383355729299
689 184 0.045819499776039802
253 184 0.022909749888019901
626 184 0.018756916778646798
4 184 0.022909749888019901
635 184 0.018756916778646798
436 184 0.018756916778646798
885 184 0.037513833557293499
99 184 0.018756916778646798
107 184 0.018756916778646798
498 184 0.022909749888019901
264 810 0.045819499776039802
78 810 0.045819499776039802
810 810 0.66251383355729299
362 810 0.045819499776039802
253 810 0.022909749888019901
626 810 0.018756916778646798
894 810 0.037513833557293499
664 810 0.018756916778646798
739 810 0.022909749888019901
425 810 0.018756916778646798
467 810 0.018756916778646798
946 810 0.018756916778646798
772 810 0.022909749888019901
327 327 0.63960408366927402
726 327 0.037513833557293499
328 327 0.037513833557293499
391 327 0.068729249664059702
141 327 0.022909749888019901
536 327 0.018756916778646798
993 327 0.045819499776039802
589 327 0.022909749888019901
569 327 0.022909749888019901
667 327 0.018756916778646798
757 327 0.022909749888019901
138 327 0.022909749888019901
517 327 0.018756916778646798
186 186 0.63960408366927402
726 186 0.037513833557293499
924 186 0.037513833557293499
300 186 0.068729249664059702
141 186 0.022909749888019901
536 186 0.018756916778646798
150 186 0.022909749888019901
826 186 0.018756916778646798
547 186 0.022909749888019901
106 186 0.045819499776039802
854 186 0.022909749888019901
579 186 0.022909749888019901
416 186 0.018756916778646798
327 726 0.022909749888019901
186 726 0.022909749888019901
726 726 0.65836100044792001
400 726 0.018756916778646798
431 726 0.068729249664059702
536 726 0.037513833557293499
993 726 0.022909749888019901
516 726 0.018756916778646798
468 726 0.022909749888019901
106 726 0.022909749888019901
591 726 0.018756916778646798
757 726 0.022909749888019901
579 726 0.022909749888019901
32 726 0.018756916778646798
6 6 0.63960408366927402
328 6 0.037513833557293499
924 6 0.037513833557293499
463 6 0.068729249664059702
643 6 0.045819499776039802
150 6 0.022909749888019901
826 6 0.018756916778646798
748 6 0.022909749888019901
569 6 0.022909749888019901
667 6 0.018756916778646798
575 6 0.022909749888019901
910 6 0.022909749888019901
465 6 0.018756916778646798
327 328 0.022909749888019901
6 328 0.022909749888019901
328 328 0.65836100044792001
400 328 0.018756916778646798
223 328 0.068729249664059702
643 328 0.022909749888019901
801 328 0.018756916778646798
993 328 0.022909749888019901
516 328 0.018756916778646798
589 328 0.022909749888019901
667 328 0.037513833557293499
558 328 0.022909749888019901
910 328 0.022909749888019901
333 328 0.018756916778646798
186 924 0.022909749888019901
6 924 0.022909749888019901
924 924 0.65836100044792001
400 924 0.018756916778646798
657 924 0.068729249664059702
643 924 0.022909749888019901
801 924 0.018756916778646798
826 924 0.037513833557293499
547 924 0.022909749888019901
106 924 0.022909749888019901
591 924 0.018756916778646798
575 924 0.022909749888019901
406 924 0.022909749888019901
618 924 0.018756916778646798
726 400 0.045819499776039802
328 400 0.045819499776039802
924 400 0.045819499776039802
400 400 0.59378458389323396
940 400 0.068729249664059702
801 400 0.037513833557293499
516 400 0.037513833557293499
468 400 0.022909749888019901
591 400 0.037513833557293499
558 400 0.022909749888019901
406 400 0.022909749888019901
224 400 0.018756916778646798
477 693 0.056270750335940298
693 693 0.61454874944009996
835 693 0.037513833557293499
45 693 0.037513833557293499
789 693 0.037513833557293499
592 693 0.045819499776039802
656 693 0.045819499776039802
319 693 0.018756916778646798
514 693 0.045819499776039802
529 693 0.018756916778646798
565 693 0.018756916778646798
815 693 0.022909749888019901
590 835 0.056270750335940298
693 835 0.022909749888019901
835 835 0.67497233288541303
145 835 0.018756916778646798
689 835 0.018756916778646798
592 835 0.022909749888019901
374 835 0.018756916778646798
125 835 0.045819499776039802
275 835 0.018756916778646798
514 835 0.022909749888019901
195 835 0.018756916778646798
33 835 0.018756916778646798
565 835 0.018756916778646798
245 835 0.022909749888019901
264 45 0.056270750335940298
693 45 0.022909749888019901
45 45 0.67497233288541303
145 45 0.018756916778646798
362 45 0.018756916778646798
592 45 0.022909749888019901
374 45 0.018756916778646798
656 45 0.022909749888019901
839 45 0.018756916778646798
945 45 0.018756916778646798
500 45 0.045819499776039802
529 45 0.018756916778646798
492 45 0.018756916778646798
353 45 0.022909749888019901
921 145 0.056270750335940298
835 145 0.045819499776039802
45 145 0.045819499776039802
145 145 0.65206258299739295
374 145 0.037513833557293499
125 145 0.022909749888019901
132 145 0.018756916778646798
632 145 0.018756916778646798
500 145 0.022909749888019901
766 145 0.018756916778646798
33 145 0.018756916778646798
492 145 0.018756916778646798
880 145 0.022909749888019901
78 789 0.056270750335940298
693 789 0.022909749888019901
789 789 0.67497233288541303
689 789 0.018756916778646798
362 789 0.018756916778646798
371 789 0.045819499776039802
656 789 0.022909749888019901
839 789 0.018756916778646798
319 789 0.018756916778646798
514 789 0.022909749888019901
195 789 0.018756916778646798
116 789 0.018756916778646798
741 789 0.018756916778646798
771 789 0.022909749888019901
184 689 0.056270750335940298
835 689 0.045819499776039802
789 689 0.045819499776039802
689 689 0.65206258299739295
371 689 0.022909749888019901
412 689 0.018756916778646798
125 689 0.022909749888019901
132 689 0.018756916778646798
275 689 0.018756916778646798
195 689 0.037513833557293499
155 689 0.018756916778646798
741 689 0.018756916778646798
498 689 0.022909749888019901
810 362 0.056270750335940298
45 362 0.045819499776039802
789 362 0.045819499776039802
362 362 0.65206258299739295
371 362 0.022909749888019901
412 362 0.018756916778646798
839 362 0.037513833557293499
945 362 0.018756916778646798
500 362 0.022909749888019901
766 362 0.018756916778646798
116 362 0.018756916778646798
442 362 0.018756916778646798
772 362 0.022909749888019901
327 391 0.037513833557293499
391 391 0.67081949977604005
431 391 0.037513833557293499
223 391 0.037513833557293499
638 391 0.022909749888019901
373 391 0.018756916778646798
861 391 0.045819499776039802
947 391 0.022909749888019901
722 391 0.022909749888019901
204 391 0.018756916778646798
474 391 0.022909749888019901
164 391 0.022909749888019901
517 391 0.018756916778646798
186 300 0.037513833557293499
300 300 0.67081949977604005
431 300 0.037513833557293499
657 300 0.037513833557293499
638 300 0.022909749888019901
373 300 0.018756916778646798
130 300 0.022909749888019901
999 300 0.018756916778646798
754 300 0.022909749888019901
469 300 0.045819499776039802
96 300 0.022909749888019901
888 300 0.022909749888019901
416 300 0.018756916778646798
726 431 0.037513833557293499
391 431 0.022909749888019901
300 431 0.022909749888019901
431 431 0.68957641655468604
940 431 0.018756916778646798
373 431 0.037513833557293499
861 431 0.022909749888019901
955 431 0.018756916778646798
140 431 0.022909749888019901
469 431 0.022909749888019901
704 431 0.018756916778646798
474 431 0.022909749888019901
888 431 0.022909749888019901
32 431 0.018756916778646798
6 463 0.037513833557293499
463 463 0.67081949977604005
223 463 0.037513833557293499
657 463 0.037513833557293499
27 463 0.045819499776039802
130 463 0.022909749888019901
999 463 0.018756916778646798
695 463 0.022909749888019901
722 463 0.022909749888019901
204 463 0.018756916778646798
688 463 0.022909749888019901
581 463 0.022909749888019901
465 463 0.018756916778646798
328 223 0.037513833557293499
391 223 0.022909749888019901
463 223 0.022909749888019901
223 223 0.68957641655468604
940 223 0.018756916778646798
27 223 0.022909749888019901
680 223 0.018756916778646798
861 223 0.022909749888019901
955 223 0.018756916778646798
947 223 0.022909749888019901
204 223 0.037513833557293499
1013 223 0.022909749888019901
581 223 0.022909749888019901
333 223 0.018756916778646798
924 657 0.037513833557293499
300 657 0.022909749888019901
463 657 0.022909749888019901
657 657 0.68957641655468604
940 657 0.018756916778646798
27 657 0.022909749888019901
680 657 0.018756916778646798
999 657 0.037513833557293499
754 657 0.022909749888019901
469 657 0.022909749888019901
704 657 0.018756916778646798
688 657 0.022909749888019901
832 657 0.022909749888019901
618 657 0.018756916778646798
400 940 0.037513833557293499
431 940 0.045819499776039802
223 940 0.045819499776039802
657 940 0.045819499776039802
940 940 0.625
680 940 0.037513833557293499
955 940 0.037513833557293499
140 940 0.022909749888019901
704 940 0.037513833557293499
1013 940 0.022909749888019901
832 940 0.022909749888019901
224 940 0.018756916778646798
248 405 0.068729249664059799
650 405 0.037513833557293499
477 405 0.045819499776039802
590 405 0.037513833557293499
264 405 0.037513833557293499
405 405 0.54166666666666696
253 405 0.037513833557293499
592 405 0.045819499776039802
985 405 0.022909749888019901
651 405 0.018756916778646798
502 405 0.022909749888019901
534 405 0.022909749888019901
214 405 0.018756916778646798
360 405 0.018756916778646798
916 405 0.022909749888019901
560 20 0.045819499776039802
989 20 0.056270750335940298
590 20 0.045819499776039802
264 20 0.045819499776039802
921 20 0.037513833557293499
20 20 0.56042358344531296
626 20 0.018756916778646798
374 20 0.045819499776039802
4 20 0.022909749888019901
858 20 0.018756916778646798
739 20 0.022909749888019901
366 20 0.018756916778646798
629 20 0.018756916778646798
686 20 0.018756916778646798
821 20 0.022909749888019901
763 253 0.068729249664059799
75 253 0.037513833557293499
78 253 0.0916389995520797
184 253 0.018756916778646798
810 253 0.018756916778646798
405 253 0.045819499776039802
253 253 0.53336100044792001
371 253 0.045819499776039802
894 253 0.018756916778646798
651 253 0.018756916778646798
885 253 0.018756916778646798
534 253 0.022909749888019901
467 253 0.018756916778646798
107 253 0.018756916778646798
464 253 0.022909749888019901
129 626 0.045819499776039802
615 626 0.056270750335940298
184 626 0.068729249664059702
810 626 0.068729249664059702
20 626 0.068729249664059702
626 626 0.51045125055990004
412 626 0.045819499776039802
635 626 0.018756916778646798
858 626 0.018756916778646798
425 626 0.018756916778646798
366 626 0.018756916778646798
99 626 0.018756916778646798
946 626 0.018756916778646798
523 626 0.022909749888019901
295 141 0.068729249664059799
571 141 0.037513833557293499
327 141 0.056270750335940298
186 141 0.056270750335940298
141 141 0.5
643 141 0.056270750335940298
638 141 0.068729249664059799
150 141 0.022909749888019901
44 141 0.022909749888019901
569 141 0.022909749888019901
613 141 0.022909749888019901
854 141 0.022909749888019901
138 141 0.022909749888019901
841 141 0.018756916778646798
89 536 0.045819499776039802
977 536 0.056270750335940298
327 536 0.022909749888019901
186 536 0.022909749888019901
726 536 0.075027667114586999
536 536 0.51875691677864699
801 536 0.037513833557293499
373 536 0.068729249664059702
993 536 0.022909749888019901
986 536 0.022909749888019901
106 536 0.022909749888019901
792 536 0.018756916778646798
757 536 0.022909749888019901
579 536 0.022909749888019901
952 536 0.018756916778646798
807 643 0.068729249664059702
556 643 0.037513833557293499
6 643 0.045819499776039802
328 643 0.037513833557293499
924 643 0.037513833557293499
141 643 0.022909749888019901
643 643 0.53336100044792001
27 643 0.068729249664059702
826 643 0.018756916778646798
44 643 0.022909749888019901
667 643 0.018756916778646798
613 643 0.022909749888019901
575 643 0.022909749888019901
910 643 0.022909749888019901
407 643 0.018756916778646798
430 801 0.045819499776039802
869 801 0.056270750335940298
328 801 0.045819499776039802
924 801 0.045819499776039802
400 801 0.037513833557293499
536 801 0.045819499776039802
801 801 0.51045125055990004
680 801 0.068729249664059702
516 801 0.018756916778646798
986 801 0.022909749888019901
591 801 0.018756916778646798
792 801 0.018756916778646798
558 801 0.022909749888019901
406 801 0.022909749888019901
321 801 0.018756916778646798
996 592 0.068729249664059702
867 592 0.037513833557293499
693 592 0.045819499776039802
835 592 0.037513833557293499
45 592 0.037513833557293499
405 592 0.056270750335940298
592 592 0.53121541610676604
371 592 0.037513833557293499
656 592 0.022909749888019901
864 592 0.018756916778646798
514 592 0.022909749888019901
243 592 0.022909749888019901
529 592 0.018756916778646798
565 592 0.018756916778646798
916 592 0.022909749888019901
86 374 0.045819499776039802
435 374 0.056270750335940298
835 374 0.045819499776039802
45 374 0.045819499776039802
145 374 0.037513833557293499
20 374 0.056270750335940298
374 374 0.54997233288541303
412 374 0.018756916778646798
125 374 0.022909749888019901
527 374 0.018756916778646798
500 374 0.022909749888019901
676 374 0.018756916778646798
33 374 0.018756916778646798
492 374 0.018756916778646798
821 374 0.022909749888019901
466 371 0.068729249664059702
876 371 0.037513833557293499
789 371 0.0916389995520797
689 371 0.018756916778646798
362 371 0.018756916778646798
253 371 0.056270750335940298
592 371 0.045819499776039802
371 371 0.52290974988801997
839 371 0.018756916778646798
864 371 0.018756916778646798
195 371 0.018756916778646798
243 371 0.022909749888019901
116 371 0.018756916778646798
741 371 0.018756916778646798
464 371 0.022909749888019901
146 412 0.045819499776039802
259 412 0.056270750335940298
689 412 0.068729249664059799
362 412 0.068729249664059799
626 412 0.056270750335940298
374 412 0.068729249664059799
412 412 0.5
132 412 0.018756916778646798
527 412 0.018756916778646798
766 412 0.018756916778646798
676 412 0.018756916778646798
155 412 0.018756916778646798
442 412 0.018756916778646798
523 412 0.022909749888019901
800 638 0.068729249664059702
171 638 0.037513833557293499
391 638 0.056270750335940298
300 638 0.056270750335940298
141 638 0.037513833557293499
638 638 0.53121541610676604
27 638 0.056270750335940298
130 638 0.022909749888019901
437 638 0.022909749888019901
722 638 0.022909749888019901
834 638 0.022909749888019901
96 638 0.022909749888019901
164 638 0.022909749888019901
841 638 0.018756916778646798
640 373 0.045819499776039802
493 373 0.056270750335940298
391 373 0.022909749888019901
300 373 0.022909749888019901
431 373 0.075027667114586999
536 373 0.037513833557293499
373 373 0.54997233288541303
680 373 0.037513833557293499
861 373 0.022909749888019901
398 373 0.022909749888019901
469 373 0.022909749888019901
281 373 0.018756916778646798
474 373 0.022909749888019901
888 373 0.022909749888019901
952 373 0.018756916778646798
88 27 0.068729249664059799
124 27 0.037513833557293499
463 27 0.045819499776039802
223 27 0.037513833557293499
657 27 0.037513833557293499
643 27 0.037513833557293499
638 27 0.022909749888019901
27 27 0.56457641655468604
999 27 0.018756916778646798
437 27 0.022909749888019901
204 27 0.018756916778646798
834 27 0.022909749888019901
688 27 0.022909749888019901
581 27 0.022909749888019901
407 27 0.018756916778646798
949 680 0.045819499776039802
51 680 0.056270750335940298
223 680 0.045819499776039802
657 680 0.045819499776039802
940 680 0.037513833557293499
801 680 0.037513833557293499
373 680 0.045819499776039802
680 680 0.54166666666666696
955 680 0.018756916778646798
398 680 0.022909749888019901
704 680 0.018756916778646798
281 680 0.018756916778646798
1013 680 0.022909749888019901
832 680 0.022909749888019901
321 680 0.018756916778646798
98 985 0.068729249664059799
459 985 0.037513833557293499
477 985 0.045819499776039802
264 985 0.037513833557293499
78 985 0.037513833557293499
405 985 0.022909749888019901
985 985 0.54166666666666696
4 985 0.037513833557293499
656 985 0.045819499776039802
268 985 0.018756916778646798
502 985 0.022909749888019901
534 985 0.022909749888019901
214 985 0.018756916778646798
30 985 0.018756916778646798
396 985 0.022909749888019901
159 4 0.068729249664059799
432 4 0.037513833557293499
590 4 0.0916389995520797
921 4 0.018756916778646798
184 4 0.018756916778646798
20 4 0.018756916778646798
985 4 0.045819499776039802
4 4 0.53336100044792001
125 4 0.045819499776039802
436 4 0.018756916778646798
885 4 0.018756916778646798
534 4 0.022909749888019901
629 4 0.018756916778646798
30 4 0.018756916778646798
670 4 0.022909749888019901
392 894 0.045819499776039802
378 894 0.056270750335940298
264 894 0.045819499776039802
78 894 0.045819499776039802
810 894 0.037513833557293499
253 894 0.022909749888019901
894 894 0.56042358344531296
635 894 0.018756916778646798
839 894 0.045819499776039802
664 894 0.018756916778646798
739 894 0.022909749888019901
366 894 0.018756916778646798
467 894 0.018756916778646798
506 894 0.018756916778646798
187 894 0.022909749888019901
923 635 0.045819499776039802
663 635 0.056270750335940298
921 635 0.068729249664059702
184 635 0.068729249664059702
626 635 0.018756916778646798
894 635 0.068729249664059702
635 635 0.51045125055990004
132 635 0.045819499776039802
685 635 0.018756916778646798
425 635 0.018756916778646798
366 635 0.018756916778646798
99 635 0.018756916778646798
506 635 0.018756916778646798
577 635 0.022909749888019901
53 150 0.068729249664059799
831 150 0.037513833557293499
186 150 0.056270750335940298
6 150 0.056270750335940298
141 150 0.022909749888019901
150 150 0.5
993 150 0.056270750335940298
130 150 0.068729249664059799
748 150 0.022909749888019901
569 150 0.022909749888019901
613 150 0.022909749888019901
854 150 0.022909749888019901
428 150 0.022909749888019901
799 150 0.018756916778646798
697 993 0.068729249664059702
699 993 0.037513833557293499
327 993 0.045819499776039802
726 993 0.037513833557293499
328 993 0.037513833557293499
536 993 0.018756916778646798
150 993 0.022909749888019901
993 993 0.53336100044792001
861 993 0.068729249664059702
589 993 0.022909749888019901
667 993 0.018756916778646798
613 993 0.022909749888019901
757 993 0.022909749888019901
428 993 0.022909749888019901
452 993 0.018756916778646798
551 826 0.045819499776039802
50 826 0.056270750335940298
186 826 0.022909749888019901
6 826 0.022909749888019901
924 826 0.075027667114586999
643 826 0.022909749888019901
826 826 0.51875691677864699
516 826 0.037513833557293499
999 826 0.068729249664059702
547 826 0.022909749888019901
106 826 0.022909749888019901
792 826 0.018756916778646798
575 826 0.022909749888019901
393 826 0.022909749888019901
285 826 0.018756916778646798
836 516 0.045819499776039802
803 516 0.056270750335940298
726 516 0.045819499776039802
328 516 0.045819499776039802
400 516 0.037513833557293499
801 516 0.018756916778646798
826 516 0.045819499776039802
516 516 0.51045125055990004
955 516 0.068729249664059702
468 516 0.022909749888019901
591 516 0.018756916778646798
792 516 0.018756916778646798
558 516 0.022909749888019901
393 516 0.022909749888019901
3 516 0.018756916778646798
67 656 0.068729249664059702
57 656 0.037513833557293499
693 656 0.045819499776039802
45 656 0.037513833557293499
789 656 0.037513833557293499
592 656 0.022909749888019901
985 656 0.056270750335940298
656 656 0.53121541610676604
125 656 0.037513833557293499
319 656 0.018756916778646798
514 656 0.022909749888019901
243 656 0.022909749888019901
529 656 0.018756916778646798
149 656 0.018756916778646798
396 656 0.022909749888019901
545 125 0.068729249664059702
28 125 0.037513833557293499
835 125 0.0916389995520797
145 125 0.018756916778646798
689 125 0.018756916778646798
374 125 0.018756916778646798
4 125 0.056270750335940298
656 125 0.045819499776039802
125 125 0.52290974988801997
275 125 0.018756916778646798
195 125 0.018756916778646798
243 125 0.022909749888019901
33 125 0.018756916778646798
149 125 0.018756916778646798
670 125 0.022909749888019901
397 839 0.045819499776039802
174 839 0.056270750335940298
45 839 0.045819499776039802
789 839 0.045819499776039802
362 839 0.037513833557293499
371 839 0.022909749888019901
894 839 0.056270750335940298
839 839 0.54997233288541303
132 839 0.018756916778646798
945 839 0.018756916778646798
500 839 0.022909749888019901
676 839 0.018756916778646798
116 839 0.018756916778646798
886 839 0.018756916778646798
187 839 0.022909749888019901
60 132 0.045819499776039802
823 132 0.056270750335940298
145 132 0.068729249664059799
689 132 0.068729249664059799
412 132 0.018756916778646798
635 132 0.056270750335940298
839 132 0.068729249664059799
132 132 0.5
632 132 0.018756916778646798
766 132 0.018756916778646798
676 132 0.018756916778646798
155 132 0.018756916778646798
886 132 0.018756916778646798
577 132 0.022909749888019901
438 130 0.068729249664059702
309 130 0.037513833557293499
300 130 0.056270750335940298
463 130 0.056270750335940298
638 130 0.022909749888019901
150 130 0.037513833557293499
130 130 0.53121541610676604
861 130 0.056270750335940298
695 130 0.022909749888019901
722 130 0.022909749888019901
834 130 0.022909749888019901
96 130 0.022909749888019901
158 130 0.022909749888019901
799 130 0.018756916778646798
126 861 0.068729249664059799
1004 861 0.037513833557293499
391 861 0.045819499776039802
431 861 0.037513833557293499
223 861 0.037513833557293499
373 861 0.018756916778646798
993 861 0.037513833557293499
130 861 0.022909749888019901
861 861 0.56457641655468604
947 861 0.022909749888019901
204 861 0.018756916778646798
834 861 0.022909749888019901
474 861 0.022909749888019901
158 861 0.022909749888019901
452 861 0.018756916778646798
122 999 0.045819499776039802
488 999 0.056270750335940298
300 999 0.022909749888019901
463 999 0.022909749888019901
657 999 0.075027667114586999
27 999 0.022909749888019901
826 999 0.037513833557293499
999 999 0.54997233288541303
955 999 0.037513833557293499
754 999 0.022909749888019901
469 999 0.022909749888019901
281 999 0.018756916778646798
688 999 0.022909749888019901
734 999 0.022909749888019901
285 999 0.018756916778646798
912 955 0.045819499776039802
208 955 0.056270750335940298
431 955 0.045819499776039802
223 955 0.045819499776039802
940 955 0.037513833557293499
680 955 0.018756916778646798
516 955 0.037513833557293499
999 955 0.045819499776039802
955 955 0.54166666666666696
140 955 0.022909749888019901
704 955 0.018756916778646798
281 955 0.018756916778646798
1013 955 0.022909749888019901
734 955 0.022909749888019901
3 955 0.018756916778646798
745 268 0.045819499776039802
36 268 0.037513833557293499
870 268 0.018756916778646798
477 268 0.022909749888019901
78 268 0.037513833557293499
985 268 0.022909749888019901
268 268 0.56457641655468604
436 268 0.037513833557293499
664 268 0.037513833557293499
319 268 0.045819499776039802
651 268 0.045819499776039802
502 268 0.022909749888019901
258 268 0.018756916778646798
41 268 0.018756916778646798
325 268 0.022909749888019901
315 436 0.045819499776039802
951 436 0.037513833557293499
769 436 0.018756916778646798
590 436 0.045819499776039802
184 436 0.018756916778646798
4 436 0.022909749888019901
268 436 0.045819499776039802
436 436 0.57918050022395995
685 436 0.018756916778646798
275 436 0.045819499776039802
651 436 0.022909749888019901
858 436 0.018756916778646798
885 436 0.018756916778646798
721 436 0.018756916778646798
41 436 0.018756916778646798
35 436 0.022909749888019901
386 664 0.045819499776039802
661 664 0.037513833557293499
798 664 0.018756916778646798
264 664 0.045819499776039802
810 664 0.018756916778646798
894 664 0.018756916778646798
268 664 0.045819499776039802
664 664 0.57918050022395995
685 664 0.018756916778646798
945 664 0.045819499776039802
651 664 0.022909749888019901
858 664 0.018756916778646798
739 664 0.022909749888019901
258 664 0.018756916778646798
593 664 0.018756916778646798
779 664 0.022909749888019901
936 685 0.045819499776039802
552 685 0.037513833557293499
479 685 0.018756916778646798
921 685 0.068729249664059702
635 685 0.018756916778646798
436 685 0.068729249664059702
664 685 0.068729249664059702
685 685 0.51045125055990004
632 685 0.045819499776039802
858 685 0.037513833557293499
425 685 0.018756916778646798
721 685 0.018756916778646798
593 685 0.018756916778646798
852 685 0.022909749888019901
118 748 0.068729249664059799
750 748 0.018756916778646798
461 748 0.018756916778646798
6 748 0.056270750335940298
150 748 0.022909749888019901
748 748 0.5
589 748 0.056270750335940298
547 748 0.056270750335940298
695 748 0.068729249664059799
44 748 0.045819499776039802
569 748 0.022909749888019901
414 748 0.022909749888019901
794 748 0.022909749888019901
317 748 0.018756916778646798
315 589 0.068729249664059702
936 589 0.018756916778646798
884 589 0.018756916778646798
327 589 0.022909749888019901
328 589 0.037513833557293499
993 589 0.022909749888019901
748 589 0.022909749888019901
589 589 0.55627075033593998
468 589 0.037513833557293499
947 589 0.068729249664059702
44 589 0.022909749888019901
986 589 0.018756916778646798
667 589 0.018756916778646798
721 589 0.022909749888019901
794 589 0.022909749888019901
201 589 0.018756916778646798
543 547 0.068729249664059702
111 547 0.018756916778646798
440 547 0.018756916778646798
186 547 0.022909749888019901
924 547 0.037513833557293499
826 547 0.018756916778646798
748 547 0.022909749888019901
547 547 0.55627075033593998
468 547 0.037513833557293499
754 547 0.068729249664059702
44 547 0.022909749888019901
986 547 0.018756916778646798
106 547 0.022909749888019901
414 547 0.022909749888019901
969 547 0.022909749888019901
193 547 0.018756916778646798
951 468 0.068729249664059702
552 468 0.018756916778646798
817 468 0.018756916778646798
726 468 0.045819499776039802
400 468 0.018756916778646798
516 468 0.018756916778646798
589 468 0.045819499776039802
547 468 0.045819499776039802
468 468 0.52920816733854703
140 468 0.068729249664059702
986 468 0.037513833557293499
591 468 0.018756916778646798
721 468 0.022909749888019901
969 468 0.022909749888019901
725 468 0.018756916778646798
990 319 0.022909749888019901
710 319 0.056270750335940298
642 319 0.022909749888019901
693 319 0.022909749888019901
789 319 0.037513833557293499
656 319 0.022909749888019901
268 319 0.056270750335940298
319 319 0.55412516599478601
275 319 0.037513833557293499
945 319 0.037513833557293499
864 319 0.045819499776039802
514 319 0.022909749888019901
911 319 0.018756916778646798
900 319 0.018756916778646798
325 319 0.022909749888019901
118 275 0.022909749888019901
543 275 0.056270750335940298
797 275 0.022909749888019901
835 275 0.045819499776039802
689 275 0.018756916778646798
125 275 0.022909749888019901
436 275 0.056270750335940298
319 275 0.045819499776039802
275 275 0.56872924966406002
632 275 0.018756916778646798
864 275 0.022909749888019901
527 275 0.018756916778646798
195 275 0.018756916778646798
414 275 0.018756916778646798
900 275 0.018756916778646798
35 275 0.022909749888019901
252 945 0.022909749888019901
1011 945 0.056270750335940298
294 945 0.022909749888019901
45 945 0.045819499776039802
362 945 0.018756916778646798
839 945 0.018756916778646798
664 945 0.056270750335940298
319 945 0.045819499776039802
945 945 0.56872924966406002
632 945 0.018756916778646798
864 945 0.022909749888019901
527 945 0.018756916778646798
500 945 0.022909749888019901
911 945 0.018756916778646798
345 945 0.018756916778646798
779 945 0.022909749888019901
750 632 0.022909749888019901
111 632 0.056270750335940298
957 632 0.022909749888019901
145 632 0.068729249664059799
132 632 0.018756916778646798
685 632 0.056270750335940298
275 632 0.068729249664059799
945 632 0.068729249664059799
632 632 0.5
527 632 0.037513833557293499
766 632 0.018756916778646798
414 632 0.018756916778646798
345 632 0.018756916778646798
852 632 0.022909749888019901
990 695 0.045819499776039802
252 695 0.037513833557293499
444 695 0.022909749888019901
463 695 0.056270750335940298
130 695 0.022909749888019901
748 695 0.037513833557293499
695 695 0.53121541610676604
947 695 0.056270750335940298
754 695 0.056270750335940298
437 695 0.045819499776039802
722 695 0.022909749888019901
911 695 0.022909749888019901
189 695 0.022909749888019901
317 695 0.018756916778646798
745 947 0.045819499776039802
386 947 0.037513833557293499
855 947 0.022909749888019901
391 947 0.022909749888019901
223 947 0.037513833557293499
861 947 0.022909749888019901
589 947 0.037513833557293499
695 947 0.022909749888019901
947 947 0.58748616644270601
140 947 0.037513833557293499
437 947 0.022909749888019901
398 947 0.018756916778646798
204 947 0.018756916778646798
258 947 0.022909749888019901
189 947 0.022909749888019901
201 947 0.018756916778646798
710 754 0.045819499776039802
1011 754 0.037513833557293499
175 754 0.022909749888019901
300 754 0.022909749888019901
657 754 0.037513833557293499
999 754 0.018756916778646798
547 754 0.037513833557293499
695 754 0.022909749888019901
754 754 0.58748616644270601
140 754 0.037513833557293499
437 754 0.022909749888019901
398 754 0.018756916778646798
469 754 0.022909749888019901
911 754 0.022909749888019901
255 754 0.022909749888019901
193 754 0.018756916778646798
36 140 0.045819499776039802
661 140 0.037513833557293499
7 140 0.022909749888019901
431 140 0.045819499776039802
940 140 0.018756916778646798
955 140 0.018756916778646798
468 140 0.037513833557293499
947 140 0.045819499776039802
754 140 0.045819499776039802
140 140 0.56042358344531296
398 140 0.037513833557293499
704 140 0.018756916778646798
258 140 0.022909749888019901
255 140 0.022909749888019901
725 140 0.018756916778646798
855 651 0.045819499776039802
7 651 0.037513833557293499
62 651 0.068729249664059799
181 651 0.037513833557293499
94 651 0.018756916778646798
405 651 0.045819499776039802
253 651 0.037513833557293499
268 651 0.0916389995520797
436 651 0.037513833557293499
664 651 0.037513833557293499
651 651 0.41251383355729299
864 651 0.045819499776039802
534 651 0.022909749888019901
258 651 0.018756916778646798
41 651 0.018756916778646798
563 651 0.022909749888019901
884 858 0.045819499776039802
817 858 0.037513833557293499
530 858 0.045819499776039802
791 858 0.056270750335940298
909 858 0.018756916778646798
20 858 0.068729249664059702
626 858 0.018756916778646798
436 858 0.068729249664059702
664 858 0.068729249664059702
685 858 0.037513833557293499
858 858 0.40836100044792001
527 858 0.045819499776039802
366 858 0.018756916778646798
721 858 0.018756916778646798
593 858 0.018756916778646798
388 858 0.022909749888019901
797 44 0.068729249664059799
957 44 0.018756916778646798
718 44 0.068729249664059799
340 44 0.037513833557293499
683 44 0.018756916778646798
141 44 0.022909749888019901
643 44 0.056270750335940298
748 44 0.045819499776039802
589 44 0.056270750335940298
547 44 0.056270750335940298
44 44 0.39375691677864699
437 44 0.068729249664059799
613 44 0.022909749888019901
414 44 0.022909749888019901
794 44 0.022909749888019901
423 44 0.018756916778646798
769 986 0.068729249664059702
479 986 0.018756916778646798
905 986 0.045819499776039802
531 986 0.056270750335940298
909 986 0.018756916778646798
536 986 0.045819499776039802
801 986 0.037513833557293499
589 986 0.045819499776039802
547 986 0.045819499776039802
468 986 0.075027667114586999
986 986 0.38960408366927402
398 986 0.068729249664059702
792 986 0.018756916778646798
721 986 0.022909749888019901
969 986 0.022909749888019901
413 986 0.018756916778646798
444 864 0.022909749888019901
175 864 0.056270750335940298
944 864 0.068729249664059702
705 864 0.037513833557293499
723 864 0.022909749888019901
592 864 0.045819499776039802
371 864 0.037513833557293499
319 864 0.0916389995520797
275 864 0.037513833557293499
945 864 0.037513833557293499
651 864 0.056270750335940298
864 864 0.402062582997393
243 864 0.022909749888019901
911 864 0.018756916778646798
900 864 0.018756916778646798
563 864 0.022909749888019901
461 527 0.022909749888019901
440 527 0.056270750335940298
641 527 0.045819499776039802
152 527 0.056270750335940298
683 527 0.022909749888019901
374 527 0.068729249664059799
412 527 0.018756916778646798
275 527 0.068729249664059799
945 527 0.068729249664059799
632 527 0.037513833557293499
858 527 0.056270750335940298
527 527 0.39790974988802003
676 527 0.018756916778646798
414 527 0.018756916778646798
345 527 0.018756916778646798
388 527 0.022909749888019901
642 437 0.045819499776039802
294 437 0.037513833557293499
66 437 0.068729249664059702
355 437 0.037513833557293499
723 437 0.022909749888019901
638 437 0.022909749888019901
27 437 0.056270750335940298
695 437 0.045819499776039802
947 437 0.056270750335940298
754 437 0.056270750335940298
44 437 0.037513833557293499
437 437 0.42497233288541297
834 437 0.022909749888019901
911 437 0.022909749888019901
189 437 0.022909749888019901
423 437 0.018756916778646798
870 398 0.045819499776039802
798 398 0.037513833557293499
696 398 0.045819499776039802
335 398 0.056270750335940298
94 398 0.022909749888019901
373 398 0.045819499776039802
680 398 0.037513833557293499
947 398 0.045819499776039802
754 398 0.045819499776039802
140 398 0.075027667114586999
986 398 0.037513833557293499
398 398 0.42081949977604
281 398 0.018756916778646798
258 398 0.022909749888019901
255 398 0.022909749888019901
413 398 0.018756916778646798
662 29 0.045819499776039802
167 29 0.037513833557293499
266 29 0.022909749888019901
98 29 0.045819499776039802
159 29 0.037513833557293499
29 29 0.66666666666666696
330 29 0.037513833557293499
339 29 0.045819499776039802
534 29 0.018756916778646701
346 29 0.018756916778646798
385 29 0.022909749888019901
298 330 0.068729249664059799
733 330 0.018756916778646798
182 330 0.018756916778646798
459 330 0.045819499776039802
432 330 0.037513833557293499
29 330 0.068729249664059799
330 330 0.63545125055990004
177 330 0.045819499776039802
534 330 0.018756916778646798
824 330 0.018756916778646798
318 330 0.022909749888019901
639 21 0.022909749888019901
998 21 0.056270750335940298
113 21 0.022909749888019901
392 21 0.068729249664059702
923 21 0.018756916778646798
21 21 0.64375691677864699
913 21 0.056270750335940298
948 21 0.045819499776039802
366 21 0.022909749888019901
1003 21 0.018756916778646798
844 21 0.022909749888019901
178 913 0.045819499776039802
462 913 0.037513833557293499
802 913 0.018756916778646798
378 913 0.068729249664059799
663 913 0.018756916778646798
21 913 0.045819499776039802
913 913 0.65420816733854703
471 913 0.045819499776039802
366 913 0.022909749888019901
408 913 0.018756916778646798
134 913 0.022909749888019901
866 609 0.045819499776039802
16 609 0.037513833557293499
731 609 0.022909749888019901
53 609 0.022909749888019901
697 609 0.056270750335940298
609 609 0.64790974988801997
646 609 0.037513833557293499
290 609 0.068729249664059702
613 609 0.018756916778646798
74 609 0.022909749888019901
509 609 0.018756916778646798
183 646 0.068729249664059799
542 646 0.018756916778646798
359 646 0.018756916778646798
831 646 0.022909749888019901
699 646 0.056270750335940298
609 646 0.068729249664059799
646 646 0.61669433378125404
367 646 0.068729249664059799
613 646 0.018756916778646798
958 646 0.022909749888019901
490 646 0.018756916778646798
669 822 0.022909749888019901
69 822 0.056270750335940298
395 822 0.022909749888019901
551 822 0.045819499776039802
836 822 0.037513833557293499
822 822 0.625
390 822 0.056270750335940298
614 822 0.068729249664059702
792 822 0.022909749888019901
727 822 0.022909749888019901
447 822 0.018756916778646798
742 390 0.045819499776039802
482 390 0.037513833557293499
9 390 0.018756916778646798
50 390 0.045819499776039802
803 390 0.037513833557293499
822 390 0.045819499776039802
390 390 0.63545125055990004
153 390 0.068729249664059799
792 390 0.022909749888019901
960 390 0.022909749888019901
829 390 0.018756916778646798
980 339 0.045819499776039802
347 339 0.037513833557293499
503 339 0.022909749888019901
67 339 0.045819499776039802
545 339 0.037513833557293499
29 339 0.056270750335940298
339 339 0.65621541610676604
177 339 0.037513833557293499
243 339 0.018756916778646798
889 339 0.018756916778646798
385 339 0.022909749888019901
422 177 0.068729249664059702
1006 177 0.018756916778646798
165 177 0.018756916778646798
57 177 0.045819499776039802
28 177 0.037513833557293499
330 177 0.056270750335940298
339 177 0.068729249664059702
177 177 0.625
243 177 0.018756916778646798
979 177 0.018756916778646798
318 177 0.022909749888019901
878 948 0.022909749888019901
274 948 0.056270750335940298
784 948 0.022909749888019901
397 948 0.068729249664059799
60 948 0.018756916778646798
21 948 0.056270750335940298
948 948 0.63330566621874596
471 948 0.056270750335940298
676 948 0.022909749888019901
838 948 0.018756916778646798
844 948 0.022909749888019901
804 471 0.045819499776039802
891 471 0.037513833557293499
846 471 0.018756916778646798
174 471 0.068729249664059702
823 471 0.018756916778646798
913 471 0.056270750335940298
948 471 0.045819499776039802
471 471 0.64375691677864699
676 471 0.022909749888019901
595 471 0.018756916778646798
134 471 0.022909749888019901
368 290 0.045819499776039802
80 290 0.037513833557293499
814 290 0.022909749888019901
438 290 0.022909749888019901
126 290 0.056270750335940298
609 290 0.037513833557293499
290 290 0.67912516599478601
367 290 0.037513833557293499
834 290 0.018756916778646798
684 290 0.022909749888019901
509 290 0.018756916778646798
108 367 0.068729249664059702
210 367 0.018756916778646798
611 367 0.018756916778646798
309 367 0.022909749888019901
1004 367 0.056270750335940298
646 367 0.037513833557293499
290 367 0.068729249664059702
367 367 0.64790974988801997
834 367 0.018756916778646798
978 367 0.022909749888019901
490 367 0.018756916778646798
31 614 0.022909749888019901
548 614 0.056270750335940298
95 614 0.022909749888019901
122 614 0.045819499776039802
912 614 0.037513833557293499
822 614 0.037513833557293499
614 614 0.65621541610676604
153 614 0.056270750335940298
281 614 0.022909749888019901
877 614 0.022909749888019901
447 614 0.018756916778646798
424 153 0.045819499776039802
954 153 0.037513833557293499
52 153 0.018756916778646798
488 153 0.045819499776039802
208 153 0.037513833557293499
390 153 0.037513833557293499
614 153 0.045819499776039802
153 153 0.66666666666666696
281 153 0.022909749888019901
788 153 0.022909749888019901
829 153 0.018756916778646701
477 502 0.045819499776039802
590 502 0.037513833557293499
78 502 0.037513833557293499
405 502 0.022909749888019901
985 502 0.022909749888019901
268 502 0.018756916778646798
502 502 0.64790974988801997
739 502 0.037513833557293499
514 502 0.045819499776039802
534 502 0.022909749888019901
485 502 0.018756916778646798
360 502 0.018756916778646798
26 502 0.022909749888019901
264 739 0.0916389995520797
921 739 0.018756916778646798
810 739 0.018756916778646798
20 739 0.018756916778646798
894 739 0.018756916778646798
664 739 0.018756916778646798
502 739 0.045819499776039802
739 739 0.63960408366927402
500 739 0.045819499776039802
534 739 0.022909749888019901
485 739 0.018756916778646798
686 739 0.018756916778646798
730 739 0.022909749888019901
590 885 0.045819499776039802
78 885 0.045819499776039802
184 885 0.037513833557293499
253 885 0.022909749888019901
4 885 0.022909749888019901
436 885 0.018756916778646798
885 885 0.66251383355729299
425 885 0.018756916778646798
195 885 0.045819499776039802
366 885 0.018756916778646798
682 885 0.018756916778646798
107 885 0.018756916778646798
568 885 0.022909749888019901
921 425 0.068729249664059702
810 425 0.068729249664059702
626 425 0.018756916778646798
635 425 0.018756916778646798
685 425 0.018756916778646798
885 425 0.068729249664059702
425 425 0.61254150067187996
766 425 0.045819499776039802
366 425 0.018756916778646798
682 425 0.018756916778646798
946 425 0.018756916778646798
271 425 0.022909749888019901
327 569 0.056270750335940298
6 569 0.056270750335940298
141 569 0.022909749888019901
150 569 0.022909749888019901
748 569 0.022909749888019901
569 569 0.60624308322135301
106 569 0.056270750335940298
722 569 0.068729249664059799
613 569 0.022909749888019901
217 569 0.022909749888019901
138 569 0.022909749888019901
691 569 0.018756916778646798
186 106 0.045819499776039802
726 106 0.037513833557293499
924 106 0.037513833557293499
536 106 0.018756916778646798
826 106 0.018756916778646798
547 106 0.022909749888019901
569 106 0.022909749888019901
106 106 0.63960408366927402
469 106 0.068729249664059702
613 106 0.022909749888019901
217 106 0.022909749888019901
579 106 0.022909749888019901
557 106 0.018756916778646798
327 667 0.022909749888019901
6 667 0.022909749888019901
328 667 0.075027667114586999
643 667 0.022909749888019901
993 667 0.022909749888019901
589 667 0.022909749888019901
667 667 0.62084716689062702
591 667 0.037513833557293499
204 667 0.068729249664059702
792 667 0.018756916778646798
777 667 0.022909749888019901
910 667 0.022909749888019901
897 667 0.018756916778646798
726 591 0.045819499776039802
924 591 0.045819499776039802
400 591 0.037513833557293499
801 591 0.018756916778646798
516 591 0.018756916778646798
468 591 0.022909749888019901
667 591 0.045819499776039802
591 591 0.61254150067187996
704 591 0.068729249664059702
792 591 0.018756916778646798
777 591 0.022909749888019901
406 591 0.022909749888019901
637 591 0.018756916778646798
693 514 0.045819499776039802
835 514 0.037513833557293499
789 514 0.037513833557293499
592 514 0.022909749888019901
656 514 0.022909749888019901
319 514 0.018756916778646798
502 514 0.056270750335940298
514 514 0.63745849932811904
500 514 0.037513833557293499
243 514 0.022909749888019901
192 514 0.018756916778646798
565 514 0.018756916778646798
26 514 0.022909749888019901
45 500 0.0916389995520797
145 500 0.018756916778646798
362 500 0.018756916778646798
374 500 0.018756916778646798
839 500 0.018756916778646798
945 500 0.018756916778646798
739 500 0.056270750335940298
514 500 0.045819499776039802
500 500 0.62915283310937298
243 500 0.022909749888019901
192 500 0.018756916778646798
492 500 0.018756916778646798
730 500 0.022909749888019901
835 195 0.045819499776039802
789 195 0.045819499776039802
689 195 0.037513833557293499
371 195 0.022909749888019901
125 195 0.022909749888019901
275 195 0.018756916778646798
885 195 0.056270750335940298
195 195 0.65206258299739295
766 195 0.018756916778646798
676 195 0.018756916778646798
875 195 0.018756916778646798
741 195 0.018756916778646798
568 195 0.022909749888019901
145 766 0.068729249664059799
362 766 0.068729249664059799
412 766 0.018756916778646798
132 766 0.018756916778646798
632 766 0.018756916778646798
425 766 0.056270750335940298
195 766 0.068729249664059799
766 766 0.60209025011198003
676 766 0.018756916778646798
875 766 0.018756916778646798
442 766 0.018756916778646798
271 766 0.022909749888019901
391 722 0.056270750335940298
463 722 0.056270750335940298
638 722 0.022909749888019901
130 722 0.022909749888019901
695 722 0.022909749888019901
569 722 0.037513833557293499
722 722 0.63745849932811904
469 722 0.056270750335940298
834 722 0.022909749888019901
973 722 0.022909749888019901
164 722 0.022909749888019901
691 722 0.018756916778646798
300 469 0.045819499776039802
431 469 0.037513833557293499
657 469 0.037513833557293499
373 469 0.018756916778646798
999 469 0.018756916778646798
754 469 0.022909749888019901
106 469 0.037513833557293499
722 469 0.022909749888019901
469 469 0.67081949977604005
834 469 0.022909749888019901
973 469 0.022909749888019901
888 469 0.022909749888019901
557 469 0.018756916778646798
391 204 0.022909749888019901
463 204 0.022909749888019901
223 204 0.075027667114586999
27 204 0.022909749888019901
861 204 0.022909749888019901
947 204 0.022909749888019901
667 204 0.037513833557293499
204 204 0.65206258299739295
704 204 0.037513833557293499
281 204 0.018756916778646798
538 204 0.022909749888019901
581 204 0.022909749888019901
897 204 0.018756916778646798
431 704 0.045819499776039802
657 704 0.045819499776039802
940 704 0.037513833557293499
680 704 0.018756916778646798
955 704 0.018756916778646798
140 704 0.022909749888019901
591 704 0.037513833557293499
204 704 0.045819499776039802
704 704 0.64375691677864699
281 704 0.018756916778646798
538 704 0.022909749888019901
832 704 0.022909749888019901
637 704 0.018756916778646798
762 534 0.068729249664059799
85 534 0.037513833557293499
405 534 0.045819499776039802
253 534 0.037513833557293499
985 534 0.045819499776039802
4 534 0.037513833557293499
651 534 0.018756916778646798
29 534 0.068729249664059799
330 534 0.037513833557293499
502 534 0.045819499776039802
739 534 0.037513833557293499
534 534 0.41251383355729299
243 534 0.045819499776039802
485 534 0.018756916778646798
30 534 0.018756916778646798
540 534 0.022909749888019901
967 366 0.045819499776039802
602 366 0.056270750335940298
20 366 0.068729249664059702
626 366 0.018756916778646798
894 366 0.068729249664059702
635 366 0.018756916778646798
858 366 0.018756916778646798
21 366 0.045819499776039802
913 366 0.056270750335940298
885 366 0.068729249664059702
425 366 0.018756916778646798
366 366 0.40836100044792001
676 366 0.045819499776039802
682 366 0.018756916778646798
506 366 0.018756916778646798
837 366 0.022909749888019901
678 613 0.068729249664059799
154 613 0.037513833557293499
141 613 0.022909749888019901
643 613 0.056270750335940298
150 613 0.022909749888019901
993 613 0.056270750335940298
44 613 0.022909749888019901
609 613 0.068729249664059799
646 613 0.037513833557293499
569 613 0.022909749888019901
106 613 0.056270750335940298
613 613 0.39375691677864699
834 613 0.068729249664059799
217 613 0.022909749888019901
428 613 0.022909749888019901
600 613 0.018756916778646798
72 792 0.045819499776039802
968 792 0.056270750335940298
536 792 0.045819499776039802
801 792 0.037513833557293499
826 792 0.045819499776039802
516 792 0.037513833557293499
986 792 0.022909749888019901
822 792 0.045819499776039802
390 792 0.056270750335940298
667 792 0.045819499776039802
591 792 0.037513833557293499
792 792 0.38960408366927402
281 792 0.068729249664059702
777 792 0.022909749888019901
393 792 0.022909749888019901
572 792 0.018756916778646798
307 243 0.068729249664059702
120 243 0.037513833557293499
592 243 0.045819499776039802
371 243 0.037513833557293499
656 243 0.045819499776039802
125 243 0.037513833557293499
864 243 0.018756916778646798
339 243 0.068729249664059702
177 243 0.037513833557293499
514 243 0.045819499776039802
500 243 0.037513833557293499
534 243 0.056270750335940298
243 243 0.402062582997393
192 243 0.018756916778646798
149 243 0.018756916778646798
540 243 0.022909749888019901
234 676 0.045819499776039802
732 676 0.056270750335940298
374 676 0.068729249664059799
412 676 0.018756916778646798
839 676 0.068729249664059799
132 676 0.018756916778646798
527 676 0.018756916778646798
948 676 0.045819499776039802
471 676 0.056270750335940298
195 676 0.068729249664059799
766 676 0.018756916778646798
366 676 0.056270750335940298
676 676 0.39790974988802003
875 676 0.018756916778646798
886 676 0.018756916778646798
837 676 0.022909749888019901
304 834 0.068729249664059702
597 834 0.037513833557293499
638 834 0.022909749888019901
27 834 0.056270750335940298
130 834 0.022909749888019901
861 834 0.056270750335940298
437 834 0.022909749888019901
290 834 0.068729249664059702
367 834 0.037513833557293499
722 834 0.022909749888019901
469 834 0.056270750335940298
613 834 0.037513833557293499
834 834 0.42497233288541297
973 834 0.022909749888019901
158 834 0.022909749888019901
600 834 0.018756916778646798
606 281 0.045819499776039802
588 281 0.056270750335940298
373 281 0.045819499776039802
680 281 0.037513833557293499
999 281 0.045819499776039802
955 281 0.037513833557293499
398 281 0.022909749888019901
614 281 0.045819499776039802
153 281 0.056270750335940298
204 281 0.045819499776039802
704 281 0.037513833557293499
792 281 0.037513833557293499
281 281 0.42081949977604
538 281 0.022909749888019901
734 281 0.022909749888019901
572 281 0.018756916778646798
477 214 0.022909749888019901
264 214 0.037513833557293499
405 214 0.022909749888019901
985 214 0.022909749888019901
214 214 0.66666666666666696
629 214 0.037513833557293499
467 214 0.037513833557293499
529 214 0.045819499776039802
258 214 0.018756916778646798
485 214 0.045819499776039802
851 214 0.018756916778646798
263 214 0.022909749888019901
590 629 0.045819499776039802
921 629 0.018756916778646798
20 629 0.018756916778646798
4 629 0.022909749888019901
214 629 0.045819499776039802
629 629 0.68127075033593998
99 629 0.018756916778646798
33 629 0.045819499776039802
721 629 0.018756916778646798
485 629 0.022909749888019901
682 629 0.018756916778646798
851 629 0.018756916778646798
343 629 0.022909749888019901
78 467 0.045819499776039802
810 467 0.018756916778646798
253 467 0.022909749888019901
894 467 0.018756916778646798
214 467 0.045819499776039802
467 467 0.68127075033593998
99 467 0.018756916778646798
116 467 0.045819499776039802
258 467 0.018756916778646798
485 467 0.022909749888019901
682 467 0.018756916778646798
550 467 0.018756916778646798
445 467 0.022909749888019901
184 99 0.068729249664059702
626 99 0.018756916778646798
635 99 0.018756916778646798
629 99 0.068729249664059702
467 99 0.068729249664059702
99 99 0.61254150067187996
155 99 0.045819499776039802
721 99 0.018756916778646798
682 99 0.037513833557293499
550 99 0.018756916778646798
574 99 0.022909749888019901
186 854 0.056270750335940298
141 854 0.022909749888019901
150 854 0.022909749888019901
854 854 0.60624308322135301
757 854 0.056270750335940298
575 854 0.056270750335940298
96 854 0.068729249664059799
414 854 0.022909749888019901
217 854 0.045819499776039802
828 854 0.022909749888019901
1008 854 0.018756916778646798
327 757 0.022909749888019901
726 757 0.037513833557293499
536 757 0.018756916778646798
993 757 0.022909749888019901
854 757 0.022909749888019901
757 757 0.66251383355729299
558 757 0.037513833557293499
474 757 0.068729249664059702
721 757 0.022909749888019901
217 757 0.022909749888019901
777 757 0.018756916778646798
828 757 0.022909749888019901
605 757 0.018756916778646798
6 575 0.022909749888019901
924 575 0.037513833557293499
643 575 0.022909749888019901
826 575 0.018756916778646798
854 575 0.022909749888019901
575 575 0.66251383355729299
558 575 0.037513833557293499
688 575 0.068729249664059702
414 575 0.022909749888019901
217 575 0.022909749888019901
777 575 0.018756916778646798
519 575 0.022909749888019901
123 575 0.018756916778646798
328 558 0.045819499776039802
400 558 0.018756916778646798
801 558 0.018756916778646798
516 558 0.018756916778646798
757 558 0.045819499776039802
575 558 0.045819499776039802
558 558 0.63545125055990004
1013 558 0.068729249664059702
721 558 0.022909749888019901
777 558 0.037513833557293499
519 558 0.022909749888019901
567 558 0.018756916778646798
693 529 0.022909749888019901
45 529 0.037513833557293499
592 529 0.022909749888019901
656 529 0.022909749888019901
214 529 0.056270750335940298
529 529 0.65621541610676604
33 529 0.037513833557293499
116 529 0.037513833557293499
911 529 0.018756916778646798
192 529 0.045819499776039802
311 529 0.018756916778646798
263 529 0.022909749888019901
835 33 0.045819499776039802
145 33 0.018756916778646798
374 33 0.018756916778646798
125 33 0.022909749888019901
629 33 0.056270750335940298
529 33 0.045819499776039802
33 33 0.67081949977604005
155 33 0.018756916778646798
414 33 0.018756916778646798
192 33 0.022909749888019901
875 33 0.018756916778646798
311 33 0.018756916778646798
343 33 0.022909749888019901
789 116 0.045819499776039802
362 116 0.018756916778646798
371 116 0.022909749888019901
839 116 0.018756916778646798
467 116 0.056270750335940298
529 116 0.045819499776039802
116 116 0.67081949977604005
155 116 0.018756916778646798
911 116 0.018756916778646798
192 116 0.022909749888019901
875 116 0.018756916778646798
332 116 0.018756916778646798
445 116 0.022909749888019901
689 155 0.068729249664059799
412 155 0.018756916778646798
132 155 0.018756916778646798
99 155 0.056270750335940298
33 155 0.068729249664059799
116 155 0.068729249664059799
155 155 0.60209025011198003
414 155 0.018756916778646798
875 155 0.037513833557293499
332 155 0.018756916778646798
574 155 0.022909749888019901
300 96 0.056270750335940298
638 96 0.022909749888019901
130 96 0.022909749888019901
854 96 0.037513833557293499
96 96 0.63745849932811904
474 96 0.056270750335940298
688 96 0.056270750335940298
911 96 0.022909749888019901
973 96 0.045819499776039802
782 96 0.022909749888019901
1008 96 0.018756916778646798
391 474 0.022909749888019901
431 474 0.037513833557293499
373 474 0.018756916778646798
861 474 0.022909749888019901
757 474 0.037513833557293499
96 474 0.022909749888019901
474 474 0.69372924966406002
1013 474 0.037513833557293499
258 474 0.022909749888019901
973 474 0.022909749888019901
538 474 0.018756916778646798
782 474 0.022909749888019901
605 474 0.018756916778646798
463 688 0.022909749888019901
657 688 0.037513833557293499
27 688 0.022909749888019901
999 688 0.018756916778646798
575 688 0.037513833557293499
96 688 0.022909749888019901
688 688 0.69372924966406002
1013 688 0.037513833557293499
911 688 0.022909749888019901
973 688 0.022909749888019901
538 688 0.018756916778646798
883 688 0.022909749888019901
123 688 0.018756916778646798
223 1013 0.045819499776039802
940 1013 0.018756916778646798
680 1013 0.018756916778646798
955 1013 0.018756916778646798
558 1013 0.037513833557293499
474 1013 0.045819499776039802
688 1013 0.045819499776039802
1013 1013 0.66666666666666696
258 1013 0.022909749888019901
538 1013 0.037513833557293499
883 1013 0.022909749888019901
567 1013 0.018756916778646798
268 258 0.045819499776039802
664 258 0.037513833557293499
947 258 0.045819499776039802
140 258 0.037513833557293499
651 258 0.022909749888019901
398 258 0.018756916778646798
214 258 0.045819499776039802
467 258 0.037513833557293499
474 258 0.045819499776039802
1013 258 0.037513833557293499
258 258 0.45833333333333298
721 258 0.037513833557293499
911 258 0.045819499776039802
485 258 0.022909749888019901
538 258 0.018756916778646798
101 258 0.018756916778646798
976 258 0.022909749888019901
436 721 0.068729249664059702
685 721 0.018756916778646798
589 721 0.045819499776039802
468 721 0.037513833557293499
858 721 0.018756916778646798
986 721 0.018756916778646798
629 721 0.068729249664059702
99 721 0.018756916778646798
757 721 0.045819499776039802
558 721 0.037513833557293499
258 721 0.068729249664059702
721 721 0.427117917226567
414 721 0.045819499776039802
682 721 0.018756916778646798
777 721 0.018756916778646798
101 721 0.018756916778646798
631 721 0.022909749888019901
748 414 0.022909749888019901
547 414 0.056270750335940298
275 414 0.068729249664059799
632 414 0.018756916778646798
44 414 0.022909749888019901
527 414 0.018756916778646798
854 414 0.022909749888019901
575 414 0.056270750335940298
33 414 0.068729249664059799
155 414 0.018756916778646798
721 414 0.056270750335940298
414 414 0.41666666666666702
911 414 0.068729249664059799
217 414 0.022909749888019901
875 414 0.018756916778646798
631 414 0.022909749888019901
341 414 0.018756916778646798
319 911 0.045819499776039802
945 911 0.037513833557293499
695 911 0.022909749888019901
754 911 0.056270750335940298
864 911 0.022909749888019901
437 911 0.022909749888019901
529 911 0.045819499776039802
116 911 0.037513833557293499
96 911 0.022909749888019901
688 911 0.056270750335940298
258 911 0.056270750335940298
414 911 0.037513833557293499
911 911 0.447882082773433
192 911 0.022909749888019901
973 911 0.022909749888019901
341 911 0.018756916778646798
976 911 0.022909749888019901
502 485 0.045819499776039802
739 485 0.037513833557293499
534 485 0.022909749888019901
214 485 0.0916389995520797
629 485 0.037513833557293499
467 485 0.037513833557293499
258 485 0.018756916778646798
485 485 0.62084716689062702
192 485 0.045819499776039802
851 485 0.018756916778646798
573 485 0.022909749888019901
885 682 0.068729249664059702
425 682 0.018756916778646798
366 682 0.018756916778646798
629 682 0.068729249664059702
467 682 0.068729249664059702
99 682 0.037513833557293499
721 682 0.018756916778646798
682 682 0.61254150067187996
875 682 0.045819499776039802
550 682 0.018756916778646798
764 682 0.022909749888019901
569 217 0.022909749888019901
106 217 0.056270750335940298
613 217 0.022909749888019901
854 217 0.045819499776039802
757 217 0.056270750335940298
575 217 0.056270750335940298
414 217 0.022909749888019901
217 217 0.60624308322135301
973 217 0.068729249664059799
828 217 0.022909749888019901
128 217 0.018756916778646798
667 777 0.045819499776039802
591 777 0.037513833557293499
792 777 0.018756916778646798
757 777 0.045819499776039802
575 777 0.045819499776039802
558 777 0.075027667114586999
721 777 0.022909749888019901
777 777 0.59793741700260705
538 777 0.068729249664059702
519 777 0.022909749888019901
526 777 0.018756916778646798
514 192 0.045819499776039802
500 192 0.037513833557293499
243 192 0.022909749888019901
529 192 0.0916389995520797
33 192 0.037513833557293499
116 192 0.037513833557293499
911 192 0.018756916778646798
485 192 0.056270750335940298
192 192 0.61039591633072598
311 192 0.018756916778646798
573 192 0.022909749888019901
195 875 0.068729249664059799
766 875 0.018756916778646798
676 875 0.018756916778646798
33 875 0.068729249664059799
116 875 0.068729249664059799
155 875 0.037513833557293499
414 875 0.018756916778646798
682 875 0.056270750335940298
875 875 0.60209025011198003
332 875 0.018756916778646798
764 875 0.022909749888019901
722 973 0.022909749888019901
469 973 0.056270750335940298
834 973 0.022909749888019901
96 973 0.045819499776039802
474 973 0.056270750335940298
688 973 0.056270750335940298
911 973 0.022909749888019901
217 973 0.037513833557293499
973 973 0.63745849932811904
782 973 0.022909749888019901
128 973 0.018756916778646798
204 538 0.045819499776039802
704 538 0.037513833557293499
281 538 0.018756916778646798
474 538 0.045819499776039802
688 538 0.045819499776039802
1013 538 0.075027667114586999
258 538 0.022909749888019901
777 538 0.037513833557293499
538 538 0.62915283310937298
883 538 0.022909749888019901
526 538 0.018756916778646798
678 610 0.037513833557293499
72 610 0.037513833557293499
304 610 0.068729249664059702
606 610 0.068729249664059702
169 610 0.045819499776039802
751 610 0.037513833557293499
381 610 0.022909749888019901
942 610 0.056270750335940298
351 610 0.022909749888019901
55 610 0.022909749888019901
610 610 0.44372924966406002
827 610 0.037513833557293499
87 610 0.056270750335940298
572 610 0.022909749888019901
600 610 0.018756916778646798
967 827 0.056270750335940298
154 827 0.037513833557293499
234 827 0.045819499776039802
597 827 0.068729249664059799
326 827 0.068729249664059799
917 827 0.018756916778646798
157 827 0.022909749888019901
622 827 0.056270750335940298
487 827 0.018756916778646798
898 827 0.022909749888019901
610 827 0.068729249664059799
827 827 0.41666666666666702
707 827 0.056270750335940298
837 827 0.022909749888019901
600 827 0.018756916778646798
762 87 0.056270750335940298
968 87 0.037513833557293499
307 87 0.045819499776039802
588 87 0.068729249664059799
460 87 0.045819499776039802
476 87 0.037513833557293499
497 87 0.045819499776039802
654 87 0.037513833557293499
759 87 0.018756916778646798
796 87 0.022909749888019901
610 87 0.045819499776039802
87 87 0.45833333333333298
707 87 0.037513833557293499
572 87 0.022909749888019901
540 87 0.018756916778646798
85 707 0.056270750335940298
602 707 0.056270750335940298
120 707 0.045819499776039802
732 707 0.045819499776039802
746 707 0.068729249664059702
215 707 0.018756916778646798
147 707 0.045819499776039802
384 707 0.037513833557293499
415 707 0.018756916778646798
316 707 0.018756916778646798
827 707 0.045819499776039802
87 707 0.068729249664059702
707 707 0.43127075033593998
837 707 0.022909749888019901
540 707 0.018756916778646798
745 478 0.045819499776039802
315 478 0.037513833557293499
855 478 0.022909749888019901
478 478 0.68957641655468604
24 478 0.037513833557293499
679 478 0.037513833557293499
104 478 0.022909749888019901
338 478 0.018756916778646798
292 478 0.022909749888019901
41 478 0.022909749888019901
201 478 0.018756916778646798
633 478 0.022909749888019901
386 24 0.068729249664059702
936 24 0.018756916778646798
884 24 0.018756916778646798
478 24 0.068729249664059702
24 24 0.65836100044792001
356 24 0.037513833557293499
410 24 0.022909749888019901
418 24 0.018756916778646798
778 24 0.022909749888019901
593 24 0.022909749888019901
201 24 0.018756916778646798
634 24 0.022909749888019901
315 375 0.056270750335940298
118 375 0.022909749888019901
797 375 0.022909749888019901
375 375 0.67497233288541303
862 375 0.056270750335940298
269 375 0.018756916778646798
972 375 0.045819499776039802
920 375 0.018756916778646798
92 375 0.022909749888019901
794 375 0.018756916778646798
35 375 0.022909749888019901
633 375 0.018756916778646798
543 862 0.045819499776039802
951 862 0.037513833557293499
769 862 0.018756916778646798
375 862 0.045819499776039802
862 862 0.68542358344531296
598 862 0.018756916778646798
272 862 0.045819499776039802
382 862 0.018756916778646798
758 862 0.022909749888019901
969 862 0.018756916778646798
35 862 0.022909749888019901
357 862 0.018756916778646798
951 679 0.037513833557293499
36 679 0.045819499776039802
7 679 0.022909749888019901
478 679 0.045819499776039802
679 679 0.66251383355729299
356 679 0.037513833557293499
40 679 0.045819499776039802
338 679 0.037513833557293499
41 679 0.022909749888019901
725 679 0.018756916778646798
357 679 0.022909749888019901
661 356 0.068729249664059702
552 356 0.018756916778646798
817 356 0.018756916778646798
24 356 0.045819499776039802
679 356 0.068729249664059702
356 356 0.63129841745052695
59 356 0.045819499776039802
418 356 0.037513833557293499
593 356 0.022909749888019901
725 356 0.018756916778646798
363 356 0.022909749888019901
936 269 0.056270750335940298
750 269 0.022909749888019901
957 269 0.022909749888019901
375 269 0.068729249664059799
269 269 0.60624308322135301
598 269 0.056270750335940298
278 269 0.068729249664059799
920 269 0.037513833557293499
794 269 0.018756916778646798
852 269 0.022909749888019901
634 269 0.018756916778646798
552 598 0.037513833557293499
111 598 0.045819499776039802
479 598 0.018756916778646798
862 598 0.068729249664059702
269 598 0.045819499776039802
598 598 0.61669433378125404
673 598 0.068729249664059702
382 598 0.037513833557293499
969 598 0.018756916778646798
852 598 0.022909749888019901
363 598 0.018756916778646798
118 104 0.037513833557293499
990 104 0.045819499776039802
444 104 0.022909749888019901
478 104 0.056270750335940298
104 104 0.63330566621874596
410 104 0.037513833557293499
40 104 0.056270750335940298
292 104 0.045819499776039802
900 104 0.022909749888019901
317 104 0.018756916778646798
633 104 0.022909749888019901
750 410 0.018756916778646798
252 410 0.068729249664059799
461 410 0.018756916778646798
24 410 0.056270750335940298
104 410 0.068729249664059799
410 410 0.60209025011198003
59 410 0.056270750335940298
778 410 0.045819499776039802
345 410 0.022909749888019901
317 410 0.018756916778646798
634 410 0.022909749888019901
745 972 0.056270750335940298
990 972 0.022909749888019901
642 972 0.022909749888019901
375 972 0.037513833557293499
972 972 0.66036824921613901
272 972 0.056270750335940298
278 972 0.037513833557293499
92 972 0.045819499776039802
189 972 0.018756916778646798
325 972 0.022909749888019901
633 972 0.018756916778646798
36 272 0.037513833557293499
710 272 0.045819499776039802
870 272 0.018756916778646798
862 272 0.037513833557293499
972 272 0.045819499776039802
272 272 0.67081949977604005
673 272 0.037513833557293499
758 272 0.045819499776039802
255 272 0.018756916778646798
325 272 0.022909749888019901
357 272 0.018756916778646798
543 40 0.037513833557293499
710 40 0.045819499776039802
175 40 0.022909749888019901
679 40 0.037513833557293499
104 40 0.022909749888019901
40 40 0.68957641655468604
59 40 0.037513833557293499
338 40 0.018756916778646798
292 40 0.022909749888019901
900 40 0.022909749888019901
193 40 0.018756916778646798
357 40 0.022909749888019901
111 59 0.018756916778646798
1011 59 0.068729249664059702
440 59 0.018756916778646798
356 59 0.037513833557293499
410 59 0.022909749888019901
40 59 0.068729249664059702
59 59 0.65836100044792001
418 59 0.018756916778646798
778 59 0.022909749888019901
345 59 0.022909749888019901
193 59 0.018756916778646798
363 59 0.022909749888019901
386 278 0.056270750335940298
252 278 0.022909749888019901
294 278 0.022909749888019901
269 278 0.018756916778646798
972 278 0.045819499776039802
278 278 0.67497233288541303
673 278 0.056270750335940298
920 278 0.018756916778646798
92 278 0.022909749888019901
189 278 0.018756916778646798
779 278 0.022909749888019901
634 278 0.018756916778646798
661 673 0.037513833557293499
1011 673 0.045819499776039802
798 673 0.018756916778646798
598 673 0.018756916778646798
272 673 0.045819499776039802
278 673 0.045819499776039802
673 673 0.68542358344531296
382 673 0.018756916778646798
758 673 0.022909749888019901
255 673 0.018756916778646798
779 673 0.022909749888019901
363 673 0.018756916778646798
769 338 0.037513833557293499
870 338 0.045819499776039802
94 338 0.022909749888019901
532 338 0.045819499776039802
767 338 0.056270750335940298
478 338 0.045819499776039802
679 338 0.075027667114586999
40 338 0.045819499776039802
338 338 0.52290974988801997
418 338 0.037513833557293499
41 338 0.022909749888019901
413 338 0.018756916778646798
357 338 0.022909749888019901
479 418 0.018756916778646798
798 418 0.068729249664059702
909 418 0.018756916778646798
421 418 0.045819499776039802
491 418 0.056270750335940298
24 418 0.045819499776039802
356 418 0.075027667114586999
59 418 0.045819499776039802
338 418 0.068729249664059702
418 418 0.49169433378125399
593 418 0.022909749888019901
413 418 0.018756916778646798
363 418 0.022909749888019901
884 920 0.056270750335940298
461 920 0.022909749888019901
683 920 0.022909749888019901
102 920 0.045819499776039802
76 920 0.056270750335940298
375 920 0.068729249664059799
269 920 0.037513833557293499
278 920 0.068729249664059799
920 920 0.50415283310937298
382 920 0.056270750335940298
794 920 0.018756916778646798
388 920 0.022909749888019901
634 920 0.018756916778646798
817 382 0.037513833557293499
440 382 0.045819499776039802
909 382 0.018756916778646798
221 382 0.045819499776039802
901 382 0.056270750335940298
862 382 0.068729249664059702
598 382 0.037513833557293499
673 382 0.068729249664059702
920 382 0.045819499776039802
382 382 0.51460408366927302
969 382 0.018756916778646798
388 382 0.022909749888019901
363 382 0.018756916778646798
797 292 0.037513833557293499
642 292 0.045819499776039802
723 292 0.022909749888019901
953 292 0.068729249664059702
665 292 0.037513833557293499
478 292 0.056270750335940298
104 292 0.045819499776039802
40 292 0.056270750335940298
292 292 0.52706258299739295
778 292 0.037513833557293499
900 292 0.022909749888019901
423 292 0.018756916778646798
633 292 0.022909749888019901
957 778 0.018756916778646798
294 778 0.068729249664059799
683 778 0.018756916778646798
387 778 0.068729249664059799
247 778 0.037513833557293499
24 778 0.056270750335940298
410 778 0.045819499776039802
59 778 0.056270750335940298
292 778 0.068729249664059799
778 778 0.49584716689062702
345 778 0.022909749888019901
423 778 0.018756916778646798
634 778 0.022909749888019901
855 92 0.056270750335940298
444 92 0.022909749888019901
723 92 0.022909749888019901
994 92 0.068729249664059702
168 92 0.037513833557293499
375 92 0.037513833557293499
972 92 0.0916389995520797
278 92 0.037513833557293499
92 92 0.50830566621874596
758 92 0.056270750335940298
189 92 0.018756916778646798
563 92 0.022909749888019901
633 92 0.018756916778646798
7 758 0.037513833557293499
175 758 0.045819499776039802
94 758 0.018756916778646798
522 758 0.068729249664059799
427 758 0.037513833557293499
862 758 0.037513833557293499
272 758 0.0916389995520797
673 758 0.037513833557293499
92 758 0.045819499776039802
758 758 0.51875691677864699
255 758 0.018756916778646798
563 758 0.022909749888019901
357 758 0.018756916778646798
98 346 0.045819499776039802
159 346 0.037513833557293499
29 346 0.022909749888019901
346 346 0.76875691677864699
824 346 0.037513833557293499
889 346 0.045819499776039802
30 346 0.018756916778646701
926 346 0.022909749888019901
459 824 0.045819499776039802
432 824 0.037513833557293499
330 824 0.022909749888019901
346 824 0.068729249664059799
824 824 0.73754150067188096
979 824 0.045819499776039802
30 824 0.018756916778646798
524 824 0.022909749888019901
392 1003 0.068729249664059702
923 1003 0.018756916778646798
21 1003 0.018756916778646798
1003 1003 0.74584716689062702
408 1003 0.056270750335940298
838 1003 0.045819499776039802
506 1003 0.022909749888019901
644 1003 0.022909749888019901
378 408 0.068729249664059799
663 408 0.018756916778646798
913 408 0.018756916778646798
1003 408 0.045819499776039802
408 408 0.75629841745052695
595 408 0.045819499776039802
506 408 0.022909749888019901
226 408 0.022909749888019901
53 74 0.022909749888019901
697 74 0.056270750335940298
609 74 0.022909749888019901
74 74 0.75415283310937298
958 74 0.037513833557293499
684 74 0.068729249664059702
428 74 0.018756916778646798
619 74 0.018756916778646798
831 958 0.022909749888019901
699 958 0.056270750335940298
646 958 0.022909749888019901
74 958 0.068729249664059799
958 958 0.72293741700260705
978 958 0.068729249664059799
428 958 0.018756916778646798
599 958 0.018756916778646798
551 727 0.045819499776039802
836 727 0.037513833557293499
822 727 0.018756916778646798
727 727 0.73124308322135301
960 727 0.056270750335940298
877 727 0.068729249664059702
393 727 0.022909749888019901
337 727 0.018756916778646798
50 960 0.045819499776039802
803 960 0.037513833557293499
390 960 0.018756916778646798
727 960 0.045819499776039802
960 960 0.74169433378125404
788 960 0.068729249664059799
393 960 0.022909749888019901
962 960 0.018756916778646798
67 889 0.045819499776039802
545 889 0.037513833557293499
339 889 0.022909749888019901
346 889 0.056270750335940298
889 889 0.75830566621874596
979 889 0.037513833557293499
149 889 0.018756916778646798
926 889 0.022909749888019901
57 979 0.045819499776039802
28 979 0.037513833557293499
177 979 0.022909749888019901
824 979 0.056270750335940298
889 979 0.068729249664059702
979 979 0.72709025011198003
149 979 0.018756916778646798
524 979 0.022909749888019901
397 838 0.068729249664059799
60 838 0.018756916778646798
948 838 0.018756916778646798
1003 838 0.056270750335940298
838 838 0.73539591633072598
595 838 0.056270750335940298
886 838 0.022909749888019901
644 838 0.022909749888019901
174 595 0.068729249664059702
823 595 0.018756916778646798
471 595 0.018756916778646798
408 595 0.056270750335940298
838 595 0.045819499776039802
595 595 0.74584716689062702
886 595 0.022909749888019901
226 595 0.022909749888019901
438 684 0.022909749888019901
126 684 0.056270750335940298
290 684 0.022909749888019901
74 684 0.037513833557293499
684 684 0.78536824921613901
978 684 0.037513833557293499
158 684 0.018756916778646798
619 684 0.018756916778646798
309 978 0.022909749888019901
1004 978 0.056270750335940298
367 978 0.022909749888019901
958 978 0.037513833557293499
684 978 0.068729249664059702
978 978 0.75415283310937298
158 978 0.018756916778646798
599 978 0.018756916778646798
122 877 0.045819499776039802
912 877 0.037513833557293499
614 877 0.018756916778646798
727 877 0.037513833557293499
877 877 0.76245849932811904
788 877 0.056270750335940298
734 877 0.022909749888019901
337 877 0.018756916778646798
488 788 0.045819499776039802
208 788 0.037513833557293499
153 788 0.018756916778646798
960 788 0.037513833557293499
877 788 0.045819499776039802
788 788 0.77290974988801997
734 788 0.022909749888019901
962 788 0.018756916778646701
477 360 0.022909749888019901
590 360 0.037513833557293499
405 360 0.022909749888019901
502 360 0.022909749888019901
360 360 0.66666666666666696
686 360 0.037513833557293499
107 360 0.037513833557293499
565 360 0.045819499776039802
30 360 0.045819499776039802
41 360 0.018756916778646798
851 360 0.018756916778646798
446 360 0.022909749888019901
264 686 0.045819499776039802
921 686 0.018756916778646798
20 686 0.018756916778646798
739 686 0.022909749888019901
360 686 0.045819499776039802
686 686 0.68127075033593998
946 686 0.018756916778646798
492 686 0.045819499776039802
30 686 0.022909749888019901
506 686 0.018756916778646798
593 686 0.018756916778646798
851 686 0.018756916778646798
706 686 0.022909749888019901
78 107 0.045819499776039802
184 107 0.018756916778646798
253 107 0.022909749888019901
885 107 0.018756916778646798
360 107 0.045819499776039802
107 107 0.68127075033593998
946 107 0.018756916778646798
741 107 0.045819499776039802
30 107 0.022909749888019901
506 107 0.018756916778646798
41 107 0.018756916778646798
550 107 0.018756916778646798
306 107 0.022909749888019901
810 946 0.068729249664059702
626 946 0.018756916778646798
425 946 0.018756916778646798
686 946 0.068729249664059702
107 946 0.068729249664059702
946 946 0.61254150067187996
442 946 0.045819499776039802
506 946 0.037513833557293499
593 946 0.018756916778646798
550 946 0.018756916778646798
950 946 0.022909749888019901
327 138 0.056270750335940298
141 138 0.022909749888019901
569 138 0.022909749888019901
138 138 0.60624308322135301
579 138 0.056270750335940298
910 138 0.056270750335940298
164 138 0.068729249664059799
428 138 0.045819499776039802
794 138 0.022909749888019901
828 138 0.022909749888019901
813 138 0.018756916778646798
186 579 0.022909749888019901
726 579 0.037513833557293499
536 579 0.018756916778646798
106 579 0.022909749888019901
138 579 0.022909749888019901
579 579 0.66251383355729299
406 579 0.037513833557293499
888 579 0.068729249664059702
428 579 0.022909749888019901
393 579 0.018756916778646798
969 579 0.022909749888019901
828 579 0.022909749888019901
12 579 0.018756916778646798
6 910 0.022909749888019901
328 910 0.037513833557293499
643 910 0.022909749888019901
667 910 0.018756916778646798
138 910 0.022909749888019901
910 910 0.66251383355729299
406 910 0.037513833557293499
581 910 0.068729249664059702
428 910 0.022909749888019901
393 910 0.018756916778646798
794 910 0.022909749888019901
519 910 0.022909749888019901
781 910 0.018756916778646798
924 406 0.045819499776039802
400 406 0.018756916778646798
801 406 0.018756916778646798
591 406 0.018756916778646798
579 406 0.045819499776039802
910 406 0.045819499776039802
406 406 0.63545125055990004
832 406 0.068729249664059702
393 406 0.037513833557293499
969 406 0.022909749888019901
519 406 0.022909749888019901
982 406 0.018756916778646798
693 565 0.022909749888019901
835 565 0.037513833557293499
592 565 0.022909749888019901
514 565 0.022909749888019901
360 565 0.056270750335940298
565 565 0.65621541610676604
492 565 0.037513833557293499
741 565 0.037513833557293499
149 565 0.045819499776039802
900 565 0.018756916778646798
311 565 0.018756916778646798
446 565 0.022909749888019901
45 492 0.045819499776039802
145 492 0.018756916778646798
374 492 0.018756916778646798
500 492 0.022909749888019901
686 492 0.056270750335940298
565 492 0.045819499776039802
492 492 0.67081949977604005
442 492 0.018756916778646798
149 492 0.022909749888019901
886 492 0.018756916778646798
345 492 0.018756916778646798
311 492 0.018756916778646798
706 492 0.022909749888019901
789 741 0.045819499776039802
689 741 0.018756916778646798
371 741 0.022909749888019901
195 741 0.018756916778646798
107 741 0.056270750335940298
565 741 0.045819499776039802
741 741 0.67081949977604005
442 741 0.018756916778646798
149 741 0.022909749888019901
886 741 0.018756916778646798
900 741 0.018756916778646798
332 741 0.018756916778646798
306 741 0.022909749888019901
362 442 0.068729249664059799
412 442 0.018756916778646798
766 442 0.018756916778646798
946 442 0.056270750335940298
492 442 0.068729249664059799
741 442 0.068729249664059799
442 442 0.60209025011198003
886 442 0.037513833557293499
345 442 0.018756916778646798
332 442 0.018756916778646798
950 442 0.022909749888019901
391 164 0.056270750335940298
638 164 0.022909749888019901
722 164 0.022909749888019901
138 164 0.037513833557293499
164 164 0.63745849932811904
888 164 0.056270750335940298
581 164 0.056270750335940298
158 164 0.045819499776039802
189 164 0.022909749888019901
782 164 0.022909749888019901
813 164 0.018756916778646798
300 888 0.022909749888019901
431 888 0.037513833557293499
373 888 0.018756916778646798
469 888 0.022909749888019901
579 888 0.037513833557293499
164 888 0.022909749888019901
888 888 0.69372924966406002
832 888 0.037513833557293499
158 888 0.022909749888019901
734 888 0.018756916778646798
255 888 0.022909749888019901
782 888 0.022909749888019901
12 888 0.018756916778646798
463 581 0.022909749888019901
223 581 0.037513833557293499
27 581 0.022909749888019901
204 581 0.018756916778646798
910 581 0.037513833557293499
164 581 0.022909749888019901
581 581 0.69372924966406002
832 581 0.037513833557293499
158 581 0.022909749888019901
734 581 0.018756916778646798
189 581 0.022909749888019901
883 581 0.022909749888019901
781 581 0.018756916778646798
657 832 0.045819499776039802
940 832 0.018756916778646798
680 832 0.018756916778646798
704 832 0.018756916778646798
406 832 0.037513833557293499
888 832 0.045819499776039802
581 832 0.045819499776039802
832 832 0.66666666666666696
734 832 0.037513833557293499
255 832 0.022909749888019901
883 832 0.022909749888019901
982 832 0.018756916778646798
985 30 0.045819499776039802
4 30 0.037513833557293499
534 30 0.022909749888019901
346 30 0.068729249664059799
824 30 0.037513833557293499
360 30 0.0916389995520797
686 30 0.037513833557293499
107 30 0.037513833557293499
30 30 0.51460408366927402
149 30 0.045819499776039802
41 30 0.018756916778646798
851 30 0.018756916778646798
717 30 0.022909749888019901
894 506 0.068729249664059702
635 506 0.018756916778646798
366 506 0.018756916778646798
1003 506 0.045819499776039802
408 506 0.056270750335940298
686 506 0.068729249664059702
107 506 0.068729249664059702
946 506 0.037513833557293499
506 506 0.51045125055990004
886 506 0.045819499776039802
593 506 0.018756916778646798
550 506 0.018756916778646798
131 506 0.022909749888019901
150 428 0.022909749888019901
993 428 0.056270750335940298
613 428 0.022909749888019901
74 428 0.068729249664059799
958 428 0.037513833557293499
138 428 0.045819499776039802
579 428 0.056270750335940298
910 428 0.056270750335940298
428 428 0.5
158 428 0.068729249664059799
794 428 0.022909749888019901
828 428 0.022909749888019901
22 428 0.018756916778646798
826 393 0.045819499776039802
516 393 0.037513833557293499
792 393 0.018756916778646798
727 393 0.045819499776039802
960 393 0.056270750335940298
579 393 0.045819499776039802
910 393 0.045819499776039802
406 393 0.075027667114586999
393 393 0.49584716689062702
734 393 0.068729249664059702
969 393 0.022909749888019901
519 393 0.022909749888019901
344 393 0.018756916778646798
656 149 0.045819499776039802
125 149 0.037513833557293499
243 149 0.022909749888019901
889 149 0.068729249664059702
979 149 0.037513833557293499
565 149 0.0916389995520797
492 149 0.037513833557293499
741 149 0.037513833557293499
30 149 0.056270750335940298
149 149 0.50415283310937298
900 149 0.018756916778646798
311 149 0.018756916778646798
717 149 0.022909749888019901
839 886 0.068729249664059799
132 886 0.018756916778646798
676 886 0.018756916778646798
838 886 0.045819499776039802
595 886 0.056270750335940298
492 886 0.068729249664059799
741 886 0.068729249664059799
442 886 0.037513833557293499
506 886 0.056270750335940298
886 886 0.5
345 886 0.018756916778646798
332 886 0.018756916778646798
131 886 0.022909749888019901
130 158 0.022909749888019901
861 158 0.056270750335940298
834 158 0.022909749888019901
684 158 0.068729249664059702
978 158 0.037513833557293499
164 158 0.045819499776039802
888 158 0.056270750335940298
581 158 0.056270750335940298
428 158 0.037513833557293499
158 158 0.53121541610676604
189 158 0.022909749888019901
782 158 0.022909749888019901
22 158 0.018756916778646798
999 734 0.045819499776039802
955 734 0.037513833557293499
281 734 0.018756916778646798
877 734 0.045819499776039802
788 734 0.056270750335940298
888 734 0.045819499776039802
581 734 0.045819499776039802
832 734 0.075027667114586999
393 734 0.037513833557293499
734 734 0.52706258299739295
255 734 0.022909749888019901
883 734 0.022909749888019901
344 734 0.018756916778646798
268 41 0.045819499776039802
436 41 0.037513833557293499
651 41 0.022909749888019901
478 41 0.045819499776039802
679 41 0.037513833557293499
338 41 0.018756916778646798
360 41 0.045819499776039802
107 41 0.037513833557293499
30 41 0.022909749888019901
41 41 0.56042358344531296
593 41 0.037513833557293499
900 41 0.045819499776039802
101 41 0.018756916778646798
830 41 0.022909749888019901
664 593 0.068729249664059702
685 593 0.018756916778646798
858 593 0.018756916778646798
24 593 0.045819499776039802
356 593 0.037513833557293499
418 593 0.018756916778646798
686 593 0.068729249664059702
946 593 0.018756916778646798
506 593 0.018756916778646798
41 593 0.068729249664059702
593 593 0.52920816733854703
345 593 0.045819499776039802
101 593 0.018756916778646798
938 593 0.022909749888019901
748 794 0.022909749888019901
589 794 0.056270750335940298
44 794 0.022909749888019901
375 794 0.068729249664059799
269 794 0.018756916778646798
920 794 0.018756916778646798
138 794 0.022909749888019901
910 794 0.056270750335940298
428 794 0.022909749888019901
794 794 0.52290974988801997
969 794 0.056270750335940298
189 794 0.068729249664059799
631 794 0.022909749888019901
737 794 0.018756916778646798
547 969 0.045819499776039802
468 969 0.037513833557293499
986 969 0.018756916778646798
862 969 0.068729249664059702
598 969 0.018756916778646798
382 969 0.018756916778646798
579 969 0.045819499776039802
406 969 0.037513833557293499
393 969 0.018756916778646798
794 969 0.045819499776039802
969 969 0.53336100044792001
255 969 0.068729249664059702
631 969 0.022909749888019901
893 969 0.018756916778646798
319 900 0.045819499776039802
275 900 0.037513833557293499
864 900 0.022909749888019901
104 900 0.022909749888019901
40 900 0.056270750335940298
292 900 0.022909749888019901
565 900 0.045819499776039802
741 900 0.037513833557293499
149 900 0.022909749888019901
41 900 0.056270750335940298
900 900 0.54997233288541303
345 900 0.037513833557293499
341 900 0.018756916778646798
830 900 0.022909749888019901
945 345 0.068729249664059799
632 345 0.018756916778646798
527 345 0.018756916778646798
410 345 0.022909749888019901
59 345 0.056270750335940298
778 345 0.022909749888019901
492 345 0.068729249664059799
442 345 0.018756916778646798
886 345 0.018756916778646798
593 345 0.056270750335940298
900 345 0.068729249664059799
345 345 0.51875691677864699
341 345 0.018756916778646798
938 345 0.022909749888019901
695 189 0.022909749888019901
947 189 0.056270750335940298
437 189 0.022909749888019901
972 189 0.045819499776039802
278 189 0.037513833557293499
92 189 0.022909749888019901
164 189 0.022909749888019901
581 189 0.056270750335940298
158 189 0.022909749888019901
794 189 0.037513833557293499
189 189 0.55412516599478601
255 189 0.056270750335940298
976 189 0.022909749888019901
737 189 0.018756916778646798
754 255 0.045819499776039802
140 255 0.037513833557293499
398 255 0.018756916778646798
272 255 0.045819499776039802
673 255 0.037513833557293499
758 255 0.022909749888019901
888 255 0.045819499776039802
832 255 0.037513833557293499
734 255 0.018756916778646798
969 255 0.037513833557293499
189 255 0.045819499776039802
255 255 0.56457641655468604
976 255 0.022909749888019901
893 255 0.018756916778646798
697 470 0.037513833557293499
126 470 0.068729249664059799
470 470 0.68957641655468604
992 470 0.037513833557293499
133 470 0.037513833557293499
121 470 0.022909749888019901
452 470 0.018756916778646798
851 470 0.022909749888019901
509 470 0.022909749888019901
619 470 0.022909749888019901
926 470 0.018756916778646798
159 992 0.056270750335940298
545 992 0.045819499776039802
470 992 0.045819499776039802
992 992 0.66666666666666696
601 992 0.037513833557293499
914 992 0.045819499776039802
670 992 0.018756916778646798
851 992 0.022909749888019901
385 992 0.022909749888019901
926 992 0.037513833557293499
699 133 0.037513833557293499
1004 133 0.068729249664059702
470 133 0.068729249664059702
133 133 0.65836100044792001
601 133 0.037513833557293499
617 133 0.022909749888019901
452 133 0.018756916778646798
550 133 0.022909749888019901
490 133 0.022909749888019901
599 133 0.022909749888019901
524 133 0.018756916778646798
432 601 0.056270750335940298
28 601 0.045819499776039802
992 601 0.068729249664059702
133 601 0.045819499776039802
601 601 0.63545125055990004
495 601 0.045819499776039802
670 601 0.018756916778646798
550 601 0.022909749888019901
318 601 0.022909749888019901
524 601 0.037513833557293499
836 449 0.037513833557293499
912 449 0.068729249664059702
449 449 0.67081949977604005
713 449 0.018756916778646798
711 449 0.056270750335940298
137 449 0.045819499776039802
3 449 0.022909749888019901
828 449 0.018756916778646798
447 449 0.018756916778646798
337 449 0.022909749888019901
644 449 0.018756916778646798
923 713 0.056270750335940298
60 713 0.045819499776039802
449 713 0.068729249664059799
713 713 0.60624308322135301
218 713 0.056270750335940298
249 713 0.068729249664059799
577 713 0.022909749888019901
828 713 0.018756916778646798
844 713 0.018756916778646798
644 713 0.037513833557293499
803 711 0.037513833557293499
208 711 0.068729249664059799
449 711 0.045819499776039802
711 711 0.68127075033593998
218 711 0.018756916778646798
199 711 0.045819499776039802
3 711 0.022909749888019901
519 711 0.018756916778646798
829 711 0.018756916778646798
962 711 0.022909749888019901
226 711 0.018756916778646798
663 218 0.056270750335940298
823 218 0.045819499776039802
713 218 0.045819499776039802
711 218 0.068729249664059702
218 218 0.61669433378125404
740 218 0.068729249664059702
577 218 0.022909749888019901
519 218 0.018756916778646798
134 218 0.018756916778646798
226 218 0.037513833557293499
53 121 0.037513833557293499
438 121 0.068729249664059702
470 121 0.056270750335940298
121 121 0.63330566621874596
914 121 0.056270750335940298
617 121 0.037513833557293499
799 121 0.018756916778646798
311 121 0.022909749888019901
509 121 0.022909749888019901
619 121 0.045819499776039802
98 914 0.056270750335940298
67 914 0.045819499776039802
992 914 0.037513833557293499
121 914 0.022909749888019901
914 914 0.69372924966406002
495 914 0.037513833557293499
396 914 0.018756916778646798
311 914 0.022909749888019901
385 914 0.022909749888019901
619 914 0.022909749888019901
926 914 0.018756916778646798
831 617 0.037513833557293499
309 617 0.068729249664059799
133 617 0.056270750335940298
121 617 0.068729249664059799
617 617 0.60209025011198003
495 617 0.056270750335940298
799 617 0.018756916778646798
332 617 0.022909749888019901
490 617 0.022909749888019901
599 617 0.045819499776039802
459 495 0.056270750335940298
57 495 0.045819499776039802
601 495 0.037513833557293499
914 495 0.068729249664059702
617 495 0.022909749888019901
495 495 0.66251383355729299
396 495 0.018756916778646798
332 495 0.022909749888019901
318 495 0.022909749888019901
599 495 0.022909749888019901
524 495 0.018756916778646798
551 137 0.037513833557293499
122 137 0.068729249664059702
449 137 0.037513833557293499
137 137 0.65621541610676604
249 137 0.037513833557293499
199 137 0.056270750335940298
285 137 0.022909749888019901
782 137 0.018756916778646798
447 137 0.018756916778646798
337 137 0.045819499776039802
392 249 0.056270750335940298
397 249 0.045819499776039802
713 249 0.018756916778646798
137 249 0.045819499776039802
249 249 0.67497233288541303
740 249 0.056270750335940298
187 249 0.022909749888019901
782 249 0.018756916778646798
844 249 0.018756916778646798
337 249 0.022909749888019901
644 249 0.018756916778646798
50 199 0.037513833557293499
488 199 0.068729249664059799
711 199 0.037513833557293499
137 199 0.045819499776039802
199 199 0.66666666666666696
740 199 0.037513833557293499
285 199 0.022909749888019901
883 199 0.018756916778646798
829 199 0.018756916778646798
962 199 0.045819499776039802
378 740 0.056270750335940298
174 740 0.045819499776039802
218 740 0.018756916778646798
249 740 0.045819499776039802
199 740 0.045819499776039802
740 740 0.68542358344531296
187 740 0.022909749888019901
883 740 0.018756916778646798
134 740 0.018756916778646798
962 740 0.022909749888019901
226 740 0.018756916778646798
327 517 0.037513833557293499
391 517 0.068729249664059702
517 517 0.51875691677864699
245 517 0.037513833557293499
333 517 0.037513833557293499
32 517 0.037513833557293499
201 517 0.045819499776039802
452 517 0.045819499776039802
952 517 0.018756916778646798
841 517 0.022909749888019901
605 517 0.045819499776039802
897 517 0.018756916778646798
691 517 0.022909749888019901
446 517 0.018756916778646798
813 517 0.022909749888019901
590 245 0.056270750335940298
835 245 0.045819499776039802
517 245 0.022909749888019901
245 245 0.56457641655468604
498 245 0.018756916778646798
880 245 0.018756916778646798
815 245 0.022909749888019901
201 245 0.022909749888019901
35 245 0.018756916778646798
670 245 0.045819499776039802
821 245 0.018756916778646798
916 245 0.022909749888019901
605 245 0.022909749888019901
343 245 0.018756916778646798
568 245 0.018756916778646798
26 245 0.022909749888019901
446 245 0.037513833557293499
328 333 0.037513833557293499
223 333 0.068729249664059702
517 333 0.022909749888019901
333 333 0.56042358344531296
498 333 0.018756916778646798
224 333 0.018756916778646798
465 333 0.022909749888019901
201 333 0.022909749888019901
35 333 0.018756916778646798
452 333 0.022909749888019901
3 333 0.018756916778646798
321 333 0.018756916778646798
407 333 0.022909749888019901
567 333 0.045819499776039802
897 333 0.037513833557293499
306 333 0.018756916778646798
781 333 0.022909749888019901
184 498 0.056270750335940298
689 498 0.045819499776039802
245 498 0.045819499776039802
333 498 0.045819499776039802
498 498 0.52290974988801997
771 498 0.045819499776039802
35 498 0.037513833557293499
670 498 0.022909749888019901
577 498 0.018756916778646798
523 498 0.018756916778646798
464 498 0.022909749888019901
567 498 0.022909749888019901
574 498 0.018756916778646798
568 498 0.037513833557293499
306 498 0.037513833557293499
726 32 0.037513833557293499
431 32 0.068729249664059702
517 32 0.022909749888019901
32 32 0.56042358344531296
880 32 0.018756916778646798
224 32 0.018756916778646798
416 32 0.022909749888019901
725 32 0.045819499776039802
452 32 0.022909749888019901
3 32 0.018756916778646798
952 32 0.037513833557293499
605 32 0.022909749888019901
343 32 0.018756916778646798
637 32 0.018756916778646798
557 32 0.022909749888019901
706 32 0.018756916778646798
12 32 0.022909749888019901
921 880 0.056270750335940298
145 880 0.045819499776039802
245 880 0.045819499776039802
32 880 0.045819499776039802
880 880 0.52290974988801997
353 880 0.045819499776039802
725 880 0.022909749888019901
852 880 0.018756916778646798
670 880 0.022909749888019901
577 880 0.018756916778646798
821 880 0.037513833557293499
343 880 0.037513833557293499
271 880 0.018756916778646798
730 880 0.022909749888019901
706 880 0.037513833557293499
400 224 0.037513833557293499
940 224 0.068729249664059702
333 224 0.045819499776039802
32 224 0.045819499776039802
224 224 0.51875691677864699
618 224 0.045819499776039802
725 224 0.022909749888019901
852 224 0.018756916778646798
3 224 0.037513833557293499
321 224 0.037513833557293499
567 224 0.022909749888019901
574 224 0.018756916778646798
637 224 0.037513833557293499
950 224 0.018756916778646798
982 224 0.022909749888019901
477 815 0.056270750335940298
693 815 0.045819499776039802
245 815 0.037513833557293499
815 815 0.52290974988801997
771 815 0.037513833557293499
353 815 0.037513833557293499
317 815 0.022909749888019901
325 815 0.018756916778646798
396 815 0.045819499776039802
916 815 0.045819499776039802
1008 815 0.022909749888019901
263 815 0.018756916778646798
26 815 0.045819499776039802
446 815 0.018756916778646798
813 815 0.022909749888019901
6 465 0.037513833557293499
463 465 0.068729249664059702
333 465 0.037513833557293499
465 465 0.51875691677864699
771 465 0.037513833557293499
618 465 0.037513833557293499
317 465 0.022909749888019901
325 465 0.018756916778646798
799 465 0.022909749888019901
285 465 0.018756916778646798
407 465 0.045819499776039802
123 465 0.045819499776039802
897 465 0.018756916778646798
691 465 0.022909749888019901
781 465 0.045819499776039802
78 771 0.056270750335940298
789 771 0.045819499776039802
498 771 0.018756916778646798
815 771 0.022909749888019901
465 771 0.022909749888019901
771 771 0.56457641655468604
772 771 0.018756916778646798
325 771 0.037513833557293499
396 771 0.022909749888019901
187 771 0.018756916778646798
464 771 0.045819499776039802
123 771 0.022909749888019901
445 771 0.018756916778646798
568 771 0.018756916778646798
26 771 0.022909749888019901
306 771 0.018756916778646798
781 771 0.022909749888019901
186 416 0.037513833557293499
300 416 0.068729249664059702
32 416 0.037513833557293499
416 416 0.51875691677864699
353 416 0.037513833557293499
618 416 0.037513833557293499
193 416 0.045819499776039802
799 416 0.022909749888019901
285 416 0.018756916778646798
952 416 0.018756916778646798
841 416 0.022909749888019901
1008 416 0.022909749888019901
263 416 0.018756916778646798
557 416 0.045819499776039802
12 416 0.045819499776039802
264 353 0.056270750335940298
45 353 0.045819499776039802
880 353 0.018756916778646798
815 353 0.022909749888019901
416 353 0.022909749888019901
353 353 0.56457641655468604
772 353 0.018756916778646798
193 353 0.022909749888019901
779 353 0.018756916778646798
396 353 0.022909749888019901
187 353 0.018756916778646798
821 353 0.018756916778646798
916 353 0.022909749888019901
263 353 0.037513833557293499
730 353 0.045819499776039802
706 353 0.018756916778646798
12 353 0.022909749888019901
924 618 0.037513833557293499
657 618 0.068729249664059702
224 618 0.018756916778646798
465 618 0.022909749888019901
416 618 0.022909749888019901
618 618 0.56042358344531296
772 618 0.018756916778646798
193 618 0.022909749888019901
779 618 0.018756916778646798
285 618 0.037513833557293499
321 618 0.018756916778646798
407 618 0.022909749888019901
123 618 0.022909749888019901
445 618 0.018756916778646798
637 618 0.018756916778646798
557 618 0.022909749888019901
982 618 0.045819499776039802
810 772 0.056270750335940298
362 772 0.045819499776039802
771 772 0.045819499776039802
353 772 0.045819499776039802
618 772 0.045819499776039802
772 772 0.52290974988801997
779 772 0.037513833557293499
187 772 0.037513833557293499
523 772 0.018756916778646798
464 772 0.022909749888019901
445 772 0.037513833557293499
271 772 0.018756916778646798
730 772 0.022909749888019901
950 772 0.018756916778646798
982 772 0.022909749888019901
589 201 0.037513833557293499
947 201 0.068729249664059702
478 201 0.068729249664059702
24 201 0.037513833557293499
517 201 0.045819499776039802
245 201 0.037513833557293499
333 201 0.037513833557293499
201 201 0.43542358344531301
725 201 0.037513833557293499
317 201 0.022909749888019901
452 201 0.022909749888019901
413 201 0.018756916778646798
423 201 0.022909749888019901
605 201 0.022909749888019901
101 201 0.022909749888019901
897 201 0.018756916778646798
446 201 0.018756916778646798
737 201 0.022909749888019901
436 35 0.056270750335940298
275 35 0.045819499776039802
375 35 0.045819499776039802
862 35 0.056270750335940298
245 35 0.045819499776039802
333 35 0.045819499776039802
498 35 0.037513833557293499
35 35 0.43957641655468599
852 35 0.018756916778646798
325 35 0.045819499776039802
670 35 0.022909749888019901
388 35 0.018756916778646798
563 35 0.022909749888019901
567 35 0.022909749888019901
631 35 0.018756916778646798
568 35 0.018756916778646798
306 35 0.018756916778646798
830 35 0.018756916778646798
468 725 0.037513833557293499
140 725 0.068729249664059702
679 725 0.068729249664059702
356 725 0.037513833557293499
32 725 0.0916389995520797
880 725 0.018756916778646798
224 725 0.018756916778646798
201 725 0.045819499776039802
725 725 0.40836100044792001
193 725 0.045819499776039802
3 725 0.018756916778646798
413 725 0.037513833557293499
343 725 0.018756916778646798
101 725 0.022909749888019901
637 725 0.018756916778646798
706 725 0.018756916778646798
893 725 0.022909749888019901
685 852 0.056270750335940298
632 852 0.045819499776039802
269 852 0.045819499776039802
598 852 0.056270750335940298
880 852 0.068729249664059799
224 852 0.068729249664059799
35 852 0.068729249664059799
852 852 0.37084716689062702
779 852 0.068729249664059799
577 852 0.018756916778646798
388 852 0.037513833557293499
574 852 0.018756916778646798
631 852 0.018756916778646798
271 852 0.018756916778646798
950 852 0.018756916778646798
938 852 0.018756916778646798
748 317 0.037513833557293499
695 317 0.068729249664059799
104 317 0.068729249664059799
410 317 0.037513833557293499
815 317 0.056270750335940298
465 317 0.056270750335940298
201 317 0.056270750335940298
317 317 0.37915283310937298
193 317 0.056270750335940298
799 317 0.022909749888019901
423 317 0.045819499776039802
1008 317 0.022909749888019901
341 317 0.022909749888019901
691 317 0.022909749888019901
813 317 0.022909749888019901
737 317 0.022909749888019901
268 325 0.056270750335940298
319 325 0.045819499776039802
972 325 0.045819499776039802
272 325 0.056270750335940298
815 325 0.022909749888019901
465 325 0.022909749888019901
771 325 0.075027667114586999
35 325 0.037513833557293499
325 325 0.42497233288541297
779 325 0.037513833557293499
396 325 0.022909749888019901
563 325 0.045819499776039802
123 325 0.022909749888019901
976 325 0.018756916778646798
26 325 0.022909749888019901
781 325 0.022909749888019901
830 325 0.018756916778646798
547 193 0.037513833557293499
754 193 0.068729249664059702
40 193 0.068729249664059702
59 193 0.037513833557293499
416 193 0.045819499776039802
353 193 0.037513833557293499
618 193 0.037513833557293499
725 193 0.037513833557293499
317 193 0.022909749888019901
193 193 0.43542358344531301
285 193 0.018756916778646798
413 193 0.018756916778646798
423 193 0.022909749888019901
263 193 0.018756916778646798
341 193 0.022909749888019901
557 193 0.022909749888019901
12 193 0.022909749888019901
893 193 0.022909749888019901
664 779 0.056270750335940298
945 779 0.045819499776039802
278 779 0.045819499776039802
673 779 0.056270750335940298
353 779 0.045819499776039802
618 779 0.045819499776039802
772 779 0.037513833557293499
852 779 0.018756916778646798
325 779 0.045819499776039802
779 779 0.43957641655468599
187 779 0.018756916778646798
388 779 0.018756916778646798
563 779 0.022909749888019901
445 779 0.018756916778646798
976 779 0.018756916778646798
730 779 0.022909749888019901
982 779 0.022909749888019901
938 779 0.018756916778646798
993 452 0.037513833557293499
861 452 0.068729249664059702
470 452 0.068729249664059702
133 452 0.037513833557293499
517 452 0.045819499776039802
333 452 0.037513833557293499
32 452 0.037513833557293499
201 452 0.022909749888019901
452 452 0.43542358344531301
670 452 0.037513833557293499
799 452 0.022909749888019901
952 452 0.018756916778646798
605 452 0.022909749888019901
101 452 0.022909749888019901
897 452 0.018756916778646798
600 452 0.022909749888019901
717 452 0.018756916778646798
22 452 0.022909749888019901
4 670 0.056270750335940298
125 670 0.045819499776039802
992 670 0.068729249664059702
601 670 0.037513833557293499
245 670 0.0916389995520797
498 670 0.018756916778646798
880 670 0.018756916778646798
35 670 0.018756916778646798
452 670 0.045819499776039802
670 670 0.41251383355729299
396 670 0.045819499776039802
821 670 0.018756916778646798
343 670 0.018756916778646798
101 670 0.022909749888019901
568 670 0.018756916778646798
540 670 0.022909749888019901
717 670 0.037513833557293499
516 3 0.037513833557293499
955 3 0.068729249664059702
449 3 0.045819499776039802
711 3 0.056270750335940298
333 3 0.045819499776039802
32 3 0.045819499776039802
224 3 0.037513833557293499
725 3 0.022909749888019901
3 3 0.43542358344531301
577 3 0.018756916778646798
285 3 0.045819499776039802
321 3 0.018756916778646798
567 3 0.022909749888019901
631 3 0.018756916778646798
637 3 0.018756916778646798
572 3 0.018756916778646798
131 3 0.018756916778646798
344 3 0.022909749888019901
635 577 0.056270750335940298
132 577 0.045819499776039802
713 577 0.045819499776039802
218 577 0.056270750335940298
498 577 0.068729249664059799
880 577 0.068729249664059799
852 577 0.018756916778646798
3 577 0.068729249664059799
577 577 0.37084716689062702
187 577 0.068729249664059799
523 577 0.018756916778646798
574 577 0.018756916778646798
631 577 0.018756916778646798
271 577 0.018756916778646798
837 577 0.018756916778646798
131 577 0.037513833557293499
150 799 0.037513833557293499
130 799 0.068729249664059799
121 799 0.068729249664059799
617 799 0.037513833557293499
465 799 0.056270750335940298
416 799 0.056270750335940298
317 799 0.022909749888019901
452 799 0.056270750335940298
799 799 0.37915283310937298
396 799 0.056270750335940298
841 799 0.022909749888019901
1008 799 0.022909749888019901
341 799 0.022909749888019901
691 799 0.022909749888019901
600 799 0.022909749888019901
22 799 0.045819499776039802
985 396 0.056270750335940298
656 396 0.045819499776039802
914 396 0.068729249664059702
495 396 0.037513833557293499
815 396 0.045819499776039802
771 396 0.037513833557293499
353 396 0.037513833557293499
325 396 0.018756916778646798
670 396 0.037513833557293499
799 396 0.022909749888019901
396 396 0.43957641655468599
916 396 0.022909749888019901
263 396 0.018756916778646798
341 396 0.022909749888019901
26 396 0.022909749888019901
540 396 0.022909749888019901
717 396 0.018756916778646798
22 396 0.022909749888019901
826 285 0.037513833557293499
999 285 0.068729249664059702
137 285 0.045819499776039802
199 285 0.056270750335940298
465 285 0.022909749888019901
416 285 0.022909749888019901
618 285 0.075027667114586999
193 285 0.022909749888019901
3 285 0.037513833557293499
285 285 0.42081949977604
187 285 0.037513833557293499
407 285 0.022909749888019901
123 285 0.022909749888019901
976 285 0.018756916778646798
557 285 0.022909749888019901
572 285 0.018756916778646798
344 285 0.045819499776039802
894 187 0.056270750335940298
839 187 0.045819499776039802
249 187 0.045819499776039802
740 187 0.056270750335940298
771 187 0.045819499776039802
353 187 0.045819499776039802
772 187 0.037513833557293499
779 187 0.018756916778646798
577 187 0.018756916778646798
285 187 0.045819499776039802
187 187 0.43957641655468599
464 187 0.022909749888019901
445 187 0.018756916778646798
976 187 0.018756916778646798
730 187 0.022909749888019901
837 187 0.018756916778646798
131 187 0.018756916778646798
344 187 0.022909749888019901
169 952 0.045819499776039802
497 952 0.056270750335940298
536 952 0.037513833557293499
373 952 0.068729249664059702
517 952 0.022909749888019901
32 952 0.075027667114586999
416 952 0.022909749888019901
452 952 0.022909749888019901
952 952 0.42081949977604
821 952 0.037513833557293499
321 952 0.037513833557293499
413 952 0.045819499776039802
605 952 0.022909749888019901
557 952 0.022909749888019901
572 952 0.018756916778646798
12 952 0.022909749888019901
441 952 0.018756916778646798
326 821 0.045819499776039802
746 821 0.056270750335940298
20 821 0.056270750335940298
374 821 0.045819499776039802
245 821 0.045819499776039802
880 821 0.037513833557293499
353 821 0.045819499776039802
670 821 0.022909749888019901
952 821 0.045819499776039802
821 821 0.43957641655468599
523 821 0.018756916778646798
413 821 0.022909749888019901
388 821 0.018756916778646798
343 821 0.018756916778646798
730 821 0.022909749888019901
837 821 0.018756916778646798
706 821 0.018756916778646798
441 821 0.018756916778646798
751 321 0.045819499776039802
654 321 0.056270750335940298
801 321 0.037513833557293499
680 321 0.068729249664059702
333 321 0.045819499776039802
224 321 0.037513833557293499
618 321 0.045819499776039802
3 321 0.018756916778646798
952 321 0.045819499776039802
321 321 0.43542358344531301
523 321 0.018756916778646798
413 321 0.022909749888019901
388 321 0.018756916778646798
567 321 0.022909749888019901
637 321 0.018756916778646798
572 321 0.018756916778646798
982 321 0.022909749888019901
19 321 0.018756916778646798
917 523 0.045819499776039802
215 523 0.056270750335940298
626 523 0.056270750335940298
412 523 0.045819499776039802
498 523 0.068729249664059799
772 523 0.068729249664059799
577 523 0.018756916778646798
821 523 0.068729249664059799
321 523 0.068729249664059799
523 523 0.37084716689062702
388 523 0.037513833557293499
574 523 0.018756916778646798
271 523 0.018756916778646798
837 523 0.018756916778646798
950 523 0.018756916778646798
19 523 0.018756916778646798
381 841 0.068729249664059799
157 841 0.037513833557293499
141 841 0.037513833557293499
638 841 0.068729249664059799
517 841 0.056270750335940298
416 841 0.056270750335940298
799 841 0.022909749888019901
841 841 0.37915283310937298
916 841 0.056270750335940298
407 841 0.056270750335940298
423 841 0.045819499776039802
1008 841 0.022909749888019901
691 841 0.022909749888019901
600 841 0.022909749888019901
813 841 0.022909749888019901
228 841 0.022909749888019901
460 916 0.068729249664059702
147 916 0.037513833557293499
405 916 0.056270750335940298
592 916 0.045819499776039802
245 916 0.037513833557293499
815 916 0.045819499776039802
353 916 0.037513833557293499
396 916 0.022909749888019901
841 916 0.022909749888019901
916 916 0.43957641655468599
464 916 0.037513833557293499
423 916 0.022909749888019901
563 916 0.018756916778646798
263 916 0.018756916778646798
26 916 0.022909749888019901
540 916 0.022909749888019901
446 916 0.018756916778646798
228 916 0.022909749888019901
942 407 0.068729249664059702
622 407 0.037513833557293499
643 407 0.037513833557293499
27 407 0.068729249664059702
333 407 0.037513833557293499
465 407 0.045819499776039802
618 407 0.037513833557293499
285 407 0.018756916778646798
841 407 0.022909749888019901
407 407 0.43542358344531301
464 407 0.037513833557293499
423 407 0.022909749888019901
563 407 0.018756916778646798
123 407 0.022909749888019901
897 407 0.018756916778646798
600 407 0.022909749888019901
781 407 0.022909749888019901
743 407 0.022909749888019901
476 464 0.068729249664059702
384 464 0.037513833557293499
253 464 0.056270750335940298
371 464 0.045819499776039802
498 464 0.018756916778646798
771 464 0.0916389995520797
772 464 0.018756916778646798
187 464 0.018756916778646798
916 464 0.045819499776039802
407 464 0.045819499776039802
464 464 0.41251383355729299
563 464 0.037513833557293499
445 464 0.018756916778646798
568 464 0.018756916778646798
540 464 0.022909749888019901
306 464 0.018756916778646798
743 464 0.022909749888019901
351 413 0.045819499776039802
796 413 0.056270750335940298
986 413 0.037513833557293499
398 413 0.068729249664059702
338 413 0.068729249664059702
418 413 0.037513833557293499
201 413 0.045819499776039802
725 413 0.075027667114586999
193 413 0.045819499776039802
952 413 0.0916389995520797
821 413 0.037513833557293499
321 413 0.037513833557293499
413 413 0.26875691677864699
101 413 0.022909749888019901
572 413 0.018756916778646798
441 413 0.018756916778646798
893 413 0.022909749888019901
487 388 0.045819499776039802
415 388 0.056270750335940298
858 388 0.056270750335940298
527 388 0.045819499776039802
920 388 0.045819499776039802
382 388 0.056270750335940298
35 388 0.068729249664059799
852 388 0.037513833557293499
779 388 0.068729249664059799
821 388 0.068729249664059799
321 388 0.068729249664059799
523 388 0.037513833557293499
388 388 0.26875691677864699
631 388 0.018756916778646798
837 388 0.018756916778646798
19 388 0.018756916778646798
938 388 0.018756916778646798
55 423 0.068729249664059799
898 423 0.037513833557293499
44 423 0.037513833557293499
437 423 0.068729249664059799
292 423 0.068729249664059799
778 423 0.037513833557293499
201 423 0.056270750335940298
317 423 0.045819499776039802
193 423 0.056270750335940298
841 423 0.045819499776039802
916 423 0.056270750335940298
407 423 0.056270750335940298
423 423 0.27290974988802003
341 423 0.022909749888019901
600 423 0.022909749888019901
228 423 0.022909749888019901
737 423 0.022909749888019901
759 563 0.068729249664059702
316 563 0.037513833557293499
651 563 0.056270750335940298
864 563 0.045819499776039802
92 563 0.045819499776039802
758 563 0.056270750335940298
35 563 0.037513833557293499
325 563 0.0916389995520797
779 563 0.037513833557293499
916 563 0.045819499776039802
407 563 0.045819499776039802
464 563 0.075027667114586999
563 563 0.27290974988802003
976 563 0.018756916778646798
540 563 0.022909749888019901
743 563 0.022909749888019901
830 563 0.018756916778646798
214 851 0.045819499776039802
629 851 0.037513833557293499
485 851 0.022909749888019901
360 851 0.045819499776039802
686 851 0.037513833557293499
30 851 0.022909749888019901
470 851 0.045819499776039802
992 851 0.037513833557293499
851 851 0.56042358344531296
550 851 0.037513833557293499
311 851 0.045819499776039802
101 851 0.018756916778646798
926 851 0.018756916778646798
441 851 0.022909749888019901
467 550 0.068729249664059702
99 550 0.018756916778646798
682 550 0.018756916778646798
107 550 0.068729249664059702
946 550 0.018756916778646798
506 550 0.018756916778646798
133 550 0.045819499776039802
601 550 0.037513833557293499
851 550 0.068729249664059702
550 550 0.52920816733854703
332 550 0.045819499776039802
101 550 0.018756916778646798
524 550 0.018756916778646798
19 550 0.022909749888019901
854 828 0.022909749888019901
757 828 0.056270750335940298
217 828 0.022909749888019901
138 828 0.022909749888019901
579 828 0.056270750335940298
428 828 0.022909749888019901
449 828 0.068729249664059799
713 828 0.018756916778646798
828 828 0.52290974988801997
519 828 0.056270750335940298
782 828 0.068729249664059799
631 828 0.022909749888019901
644 828 0.018756916778646798
228 828 0.018756916778646798
575 519 0.045819499776039802
558 519 0.037513833557293499
777 519 0.018756916778646798
910 519 0.045819499776039802
406 519 0.037513833557293499
393 519 0.018756916778646798
711 519 0.068729249664059702
218 519 0.018756916778646798
828 519 0.045819499776039802
519 519 0.53336100044792001
883 519 0.068729249664059702
631 519 0.022909749888019901
226 519 0.018756916778646798
743 519 0.018756916778646798
529 311 0.045819499776039802
33 311 0.037513833557293499
192 311 0.022909749888019901
565 311 0.045819499776039802
492 311 0.037513833557293499
149 311 0.022909749888019901
121 311 0.022909749888019901
914 311 0.056270750335940298
851 311 0.056270750335940298
311 311 0.54997233288541303
332 311 0.037513833557293499
341 311 0.018756916778646798
619 311 0.022909749888019901
441 311 0.022909749888019901
116 332 0.068729249664059799
155 332 0.018756916778646798
875 332 0.018756916778646798
741 332 0.068729249664059799
442 332 0.018756916778646798
886 332 0.018756916778646798
617 332 0.022909749888019901
495 332 0.056270750335940298
550 332 0.056270750335940298
311 332 0.068729249664059799
332 332 0.51875691677864699
341 332 0.018756916778646798
599 332 0.022909749888019901
19 332 0.022909749888019901
96 782 0.022909749888019901
474 782 0.056270750335940298
973 782 0.022909749888019901
164 782 0.022909749888019901
888 782 0.056270750335940298
158 782 0.022909749888019901
137 782 0.045819499776039802
249 782 0.037513833557293499
828 782 0.037513833557293499
782 782 0.55412516599478601
883 782 0.056270750335940298
976 782 0.022909749888019901
337 782 0.022909749888019901
228 782 0.018756916778646798
688 883 0.045819499776039802
1013 883 0.037513833557293499
538 883 0.018756916778646798
581 883 0.045819499776039802
832 883 0.037513833557293499
734 883 0.018756916778646798
199 883 0.045819499776039802
740 883 0.037513833557293499
519 883 0.037513833557293499
782 883 0.045819499776039802
883 883 0.56457641655468604
976 883 0.022909749888019901
962 883 0.022909749888019901
743 883 0.018756916778646798
757 605 0.037513833557293499
474 605 0.068729249664059702
517 605 0.045819499776039802
245 605 0.037513833557293499
32 605 0.037513833557293499
201 605 0.022909749888019901
452 605 0.022909749888019901
952 605 0.018756916778646798
605 605 0.54166666666666696
567 605 0.037513833557293499
1008 605 0.022909749888019901
101 605 0.022909749888019901
526 605 0.018756916778646798
128 605 0.022909749888019901
446 605 0.018756916778646798
228 605 0.022909749888019901
558 567 0.037513833557293499
1013 567 0.068729249664059702
333 567 0.0916389995520797
498 567 0.018756916778646798
224 567 0.018756916778646798
35 567 0.018756916778646798
3 567 0.018756916778646798
321 567 0.018756916778646798
605 567 0.045819499776039802
567 567 0.51460408366927302
123 567 0.045819499776039802
101 567 0.022909749888019901
526 567 0.037513833557293499
306 567 0.018756916778646798
743 567 0.022909749888019901
629 343 0.056270750335940298
33 343 0.045819499776039802
245 343 0.045819499776039802
32 343 0.045819499776039802
880 343 0.037513833557293499
725 343 0.022909749888019901
670 343 0.022909749888019901
821 343 0.018756916778646798
343 343 0.54166666666666696
574 343 0.018756916778646798
263 343 0.045819499776039802
631 343 0.018756916778646798
764 343 0.018756916778646798
573 343 0.022909749888019901
706 343 0.018756916778646798
441 343 0.018756916778646798
99 574 0.056270750335940298
155 574 0.045819499776039802
498 574 0.068729249664059799
224 574 0.068729249664059799
852 574 0.018756916778646798
577 574 0.018756916778646798
523 574 0.018756916778646798
343 574 0.068729249664059799
574 574 0.472937417002607
445 574 0.068729249664059799
631 574 0.018756916778646798
764 574 0.037513833557293499
950 574 0.018756916778646798
19 574 0.018756916778646798
854 1008 0.037513833557293499
96 1008 0.068729249664059799
815 1008 0.056270750335940298
416 1008 0.056270750335940298
317 1008 0.022909749888019901
799 1008 0.022909749888019901
841 1008 0.022909749888019901
605 1008 0.056270750335940298
1008 1008 0.48539591633072598
123 1008 0.056270750335940298
341 1008 0.022909749888019901
128 1008 0.045819499776039802
813 1008 0.022909749888019901
228 1008 0.022909749888019901
575 123 0.037513833557293499
688 123 0.068729249664059702
465 123 0.045819499776039802
771 123 0.037513833557293499
618 123 0.037513833557293499
325 123 0.018756916778646798
285 123 0.018756916778646798
407 123 0.022909749888019901
567 123 0.037513833557293499
1008 123 0.022909749888019901
123 123 0.54166666666666696
341 123 0.022909749888019901
526 123 0.018756916778646798
128 123 0.022909749888019901
781 123 0.022909749888019901
743 123 0.022909749888019901
214 263 0.056270750335940298
529 263 0.045819499776039802
815 263 0.022909749888019901
416 263 0.022909749888019901
353 263 0.075027667114586999
193 263 0.022909749888019901
396 263 0.022909749888019901
916 263 0.022909749888019901
343 263 0.037513833557293499
263 263 0.52706258299739295
445 263 0.037513833557293499
976 263 0.018756916778646798
573 263 0.045819499776039802
12 263 0.022909749888019901
441 263 0.018756916778646798
467 445 0.056270750335940298
116 445 0.045819499776039802
771 445 0.045819499776039802
618 445 0.045819499776039802
772 445 0.037513833557293499
779 445 0.018756916778646798
187 445 0.018756916778646798
464 445 0.022909749888019901
574 445 0.018756916778646798
263 445 0.045819499776039802
445 445 0.54166666666666696
976 445 0.018756916778646798
764 445 0.018756916778646798
573 445 0.022909749888019901
982 445 0.022909749888019901
19 445 0.018756916778646798
258 101 0.068729249664059702
721 101 0.037513833557293499
41 101 0.068729249664059702
593 101 0.037513833557293499
201 101 0.045819499776039802
725 101 0.037513833557293499
452 101 0.045819499776039802
670 101 0.037513833557293499
413 101 0.018756916778646798
851 101 0.068729249664059702
550 101 0.037513833557293499
605 101 0.045819499776039802
567 101 0.037513833557293499
101 101 0.30627075033593998
341 101 0.045819499776039802
526 101 0.018756916778646798
717 101 0.018756916778646798
559 101 0.022909749888019901
721 631 0.056270750335940298
414 631 0.045819499776039802
794 631 0.045819499776039802
969 631 0.056270750335940298
35 631 0.068729249664059799
852 631 0.018756916778646798
3 631 0.068729249664059799
577 631 0.018756916778646798
388 631 0.018756916778646798
828 631 0.045819499776039802
519 631 0.056270750335940298
343 631 0.068729249664059799
574 631 0.018756916778646798
631 631 0.28751383355729299
976 631 0.068729249664059799
764 631 0.018756916778646798
131 631 0.018756916778646798
559 631 0.018756916778646798
414 341 0.037513833557293499
911 341 0.068729249664059799
900 341 0.068729249664059799
345 341 0.037513833557293499
317 341 0.022909749888019901
193 341 0.056270750335940298
799 341 0.022909749888019901
396 341 0.056270750335940298
423 341 0.022909749888019901
311 341 0.068729249664059799
332 341 0.037513833557293499
1008 341 0.022909749888019901
123 341 0.056270750335940298
101 341 0.056270750335940298
341 341 0.29581949977604
128 341 0.022909749888019901
22 341 0.022909749888019901
559 341 0.022909749888019901
258 976 0.056270750335940298
911 976 0.045819499776039802
189 976 0.045819499776039802
255 976 0.056270750335940298
325 976 0.045819499776039802
779 976 0.037513833557293499
285 976 0.045819499776039802
187 976 0.037513833557293499
563 976 0.022909749888019901
782 976 0.045819499776039802
883 976 0.056270750335940298
263 976 0.045819499776039802
445 976 0.037513833557293499
631 976 0.037513833557293499
976 976 0.31872924966406002
573 976 0.022909749888019901
344 976 0.022909749888019901
559 976 0.018756916778646798
381 447 0.022909749888019901
460 447 0.056270750335940298
55 447 0.022909749888019901
822 447 0.037513833557293499
614 447 0.068729249664059702
449 447 0.037513833557293499
137 447 0.045819499776039802
447 447 0.54997233288541303
844 447 0.037513833557293499
829 447 0.056270750335940298
572 447 0.022909749888019901
337 447 0.022909749888019901
228 447 0.018756916778646798
157 844 0.022909749888019901
147 844 0.056270750335940298
898 844 0.022909749888019901
21 844 0.056270750335940298
948 844 0.045819499776039802
713 844 0.018756916778646798
249 844 0.068729249664059799
447 844 0.068729249664059799
844 844 0.52290974988801997
134 844 0.056270750335940298
837 844 0.022909749888019901
644 844 0.018756916778646798
228 844 0.018756916778646798
942 829 0.045819499776039802
476 829 0.037513833557293499
759 829 0.018756916778646798
390 829 0.037513833557293499
153 829 0.068729249664059799
711 829 0.037513833557293499
199 829 0.045819499776039802
447 829 0.045819499776039802
829 829 0.56042358344531296
134 829 0.037513833557293499
572 829 0.022909749888019901
962 829 0.022909749888019901
743 829 0.018756916778646798
622 134 0.045819499776039802
384 134 0.037513833557293499
316 134 0.018756916778646798
913 134 0.056270750335940298
471 134 0.045819499776039802
218 134 0.018756916778646798
740 134 0.068729249664059702
844 134 0.045819499776039802
829 134 0.068729249664059702
134 134 0.53336100044792001
837 134 0.022909749888019901
226 134 0.018756916778646798
743 134 0.018756916778646798
169 509 0.045819499776039802
326 509 0.037513833557293499
351 509 0.022909749888019901
609 509 0.037513833557293499
290 509 0.068729249664059702
470 509 0.056270750335940298
121 509 0.022909749888019901
509 509 0.54997233288541303
385 509 0.056270750335940298
490 509 0.037513833557293499
600 509 0.018756916778646798
619 509 0.022909749888019901
441 509 0.022909749888019901
497 385 0.045819499776039802
746 385 0.037513833557293499
796 385 0.022909749888019901
29 385 0.056270750335940298
339 385 0.045819499776039802
992 385 0.037513833557293499
914 385 0.045819499776039802
509 385 0.045819499776039802
385 385 0.56457641655468604
318 385 0.037513833557293499
540 385 0.018756916778646798
926 385 0.018756916778646798
441 385 0.022909749888019901
751 490 0.068729249664059799
917 490 0.018756916778646798
487 490 0.018756916778646798
646 490 0.037513833557293499
367 490 0.068729249664059799
133 490 0.056270750335940298
617 490 0.022909749888019901
509 490 0.068729249664059799
490 490 0.51875691677864699
318 490 0.056270750335940298
600 490 0.018756916778646798
599 490 0.022909749888019901
19 490 0.022909749888019901
654 318 0.068729249664059702
215 318 0.018756916778646798
415 318 0.018756916778646798
330 318 0.056270750335940298
177 318 0.045819499776039802
601 318 0.037513833557293499
495 318 0.045819499776039802
385 318 0.068729249664059702
490 318 0.045819499776039802
318 318 0.53336100044792001
540 318 0.018756916778646798
524 318 0.018756916778646798
19 318 0.022909749888019901
667 897 0.037513833557293499
204 897 0.068729249664059702
517 897 0.022909749888019901
333 897 0.075027667114586999
465 897 0.022909749888019901
201 897 0.022909749888019901
452 897 0.022909749888019901
407 897 0.022909749888019901
897 897 0.52290974988801997
568 897 0.037513833557293499
637 897 0.037513833557293499
572 897 0.018756916778646798
526 897 0.045819499776039802
781 897 0.022909749888019901
830 897 0.018756916778646798
885 568 0.056270750335940298
195 568 0.045819499776039802
245 568 0.045819499776039802
498 568 0.037513833557293499
771 568 0.045819499776039802
35 568 0.018756916778646798
670 568 0.022909749888019901
464 568 0.022909749888019901
897 568 0.045819499776039802
568 568 0.54166666666666696
271 568 0.018756916778646798
837 568 0.018756916778646798
526 568 0.022909749888019901
764 568 0.018756916778646798
306 568 0.018756916778646798
830 568 0.018756916778646798
591 637 0.037513833557293499
704 637 0.068729249664059702
32 637 0.045819499776039802
224 637 0.037513833557293499
618 637 0.045819499776039802
725 637 0.022909749888019901
3 637 0.018756916778646798
321 637 0.018756916778646798
897 637 0.045819499776039802
637 637 0.53751383355729299
271 637 0.018756916778646798
572 637 0.018756916778646798
526 637 0.022909749888019901
764 637 0.018756916778646798
982 637 0.022909749888019901
938 637 0.018756916778646798
425 271 0.056270750335940298
766 271 0.045819499776039802
880 271 0.068729249664059799
772 271 0.068729249664059799
852 271 0.018756916778646798
577 271 0.018756916778646798
523 271 0.018756916778646798
568 271 0.068729249664059799
637 271 0.068729249664059799
271 271 0.472937417002607
837 271 0.018756916778646798
764 271 0.037513833557293499
950 271 0.018756916778646798
938 271 0.018756916778646798
569 691 0.037513833557293499
722 691 0.068729249664059799
517 691 0.056270750335940298
465 691 0.056270750335940298
317 691 0.022909749888019901
799 691 0.022909749888019901
841 691 0.022909749888019901
691 691 0.48539591633072598
26 691 0.056270750335940298
557 691 0.056270750335940298
600 691 0.022909749888019901
128 691 0.045819499776039802
813 691 0.022909749888019901
737 691 0.022909749888019901
502 26 0.056270750335940298
514 26 0.045819499776039802
245 26 0.037513833557293499
815 26 0.045819499776039802
771 26 0.037513833557293499
325 26 0.018756916778646798
396 26 0.022909749888019901
916 26 0.022909749888019901
691 26 0.022909749888019901
26 26 0.54581949977604005
730 26 0.037513833557293499
540 26 0.022909749888019901
128 26 0.022909749888019901
573 26 0.018756916778646798
446 26 0.018756916778646798
737 26 0.022909749888019901
106 557 0.037513833557293499
469 557 0.068729249664059702
32 557 0.037513833557293499
416 557 0.045819499776039802
618 557 0.037513833557293499
193 557 0.022909749888019901
285 557 0.018756916778646798
952 557 0.018756916778646798
691 557 0.022909749888019901
557 557 0.54166666666666696
730 557 0.037513833557293499
600 557 0.022909749888019901
128 557 0.022909749888019901
573 557 0.018756916778646798
12 557 0.022909749888019901
893 557 0.022909749888019901
739 730 0.056270750335940298
500 730 0.045819499776039802
880 730 0.018756916778646798
353 730 0.0916389995520797
772 730 0.018756916778646798
779 730 0.018756916778646798
187 730 0.018756916778646798
821 730 0.018756916778646798
26 730 0.045819499776039802
557 730 0.045819499776039802
730 730 0.51875691677864699
540 730 0.022909749888019901
573 730 0.037513833557293499
706 730 0.018756916778646798
893 730 0.022909749888019901
792 572 0.037513833557293499
281 572 0.068729249664059702
610 572 0.045819499776039802
87 572 0.056270750335940298
3 572 0.037513833557293499
285 572 0.045819499776039802
952 572 0.045819499776039802
321 572 0.037513833557293499
413 572 0.022909749888019901
447 572 0.045819499776039802
829 572 0.056270750335940298
897 572 0.045819499776039802
637 572 0.037513833557293499
572 572 0.31457641655468599
837 572 0.037513833557293499
526 572 0.022909749888019901
344 572 0.022909749888019901
559 572 0.018756916778646798
366 837 0.056270750335940298
676 837 0.045819499776039802
827 837 0.045819499776039802
707 837 0.056270750335940298
577 837 0.018756916778646798
187 837 0.068729249664059799
821 837 0.068729249664059799
523 837 0.018756916778646798
388 837 0.018756916778646798
844 837 0.045819499776039802
134 837 0.056270750335940298
568 837 0.068729249664059799
271 837 0.018756916778646798
572 837 0.068729249664059799
837 837 0.28751383355729299
764 837 0.018756916778646798
131 837 0.018756916778646798
559 837 0.018756916778646798
613 600 0.037513833557293499
834 600 0.068729249664059799
610 600 0.068729249664059799
827 600 0.037513833557293499
452 600 0.056270750335940298
799 600 0.022909749888019901
841 600 0.022909749888019901
407 600 0.056270750335940298
423 600 0.022909749888019901
509 600 0.068729249664059799
490 600 0.037513833557293499
691 600 0.022909749888019901
557 600 0.056270750335940298
600 600 0.29581949977604
540 600 0.056270750335940298
128 600 0.022909749888019901
22 600 0.022909749888019901
559 600 0.022909749888019901
534 540 0.056270750335940298
243 540 0.045819499776039802
87 540 0.068729249664059702
707 540 0.037513833557293499
670 540 0.037513833557293499
396 540 0.045819499776039802
916 540 0.045819499776039802
464 540 0.037513833557293499
563 540 0.018756916778646798
385 540 0.068729249664059702
318 540 0.037513833557293499
26 540 0.045819499776039802
730 540 0.037513833557293499
600 540 0.045819499776039802
540 540 0.31042358344531301
573 540 0.018756916778646798
717 540 0.018756916778646798
559 540 0.022909749888019901
777 526 0.037513833557293499
538 526 0.068729249664059702
605 526 0.045819499776039802
567 526 0.075027667114586999
123 526 0.045819499776039802
101 526 0.022909749888019901
897 526 0.0916389995520797
568 526 0.037513833557293499
637 526 0.037513833557293499
572 526 0.018756916778646798
526 526 0.47709025011197997
743 526 0.022909749888019901
830 526 0.018756916778646798
682 764 0.056270750335940298
875 764 0.045819499776039802
343 764 0.068729249664059799
574 764 0.037513833557293499
445 764 0.068729249664059799
631 764 0.018756916778646798
568 764 0.068729249664059799
637 764 0.068729249664059799
271 764 0.037513833557293499
837 764 0.018756916778646798
764 764 0.472937417002607
19 764 0.018756916778646798
938 764 0.018756916778646798
217 128 0.037513833557293499
973 128 0.068729249664059799
605 128 0.056270750335940298
1008 128 0.045819499776039802
123 128 0.056270750335940298
341 128 0.022909749888019901
691 128 0.045819499776039802
26 128 0.056270750335940298
557 128 0.056270750335940298
600 128 0.022909749888019901
128 128 0.48539591633072598
228 128 0.022909749888019901
737 128 0.022909749888019901
485 573 0.056270750335940298
192 573 0.045819499776039802
343 573 0.037513833557293499
263 573 0.0916389995520797
445 573 0.037513833557293499
976 573 0.018756916778646798
26 573 0.045819499776039802
557 573 0.045819499776039802
730 573 0.075027667114586999
540 573 0.022909749888019901
573 573 0.48124308322135301
441 573 0.018756916778646798
893 573 0.022909749888019901
74 619 0.037513833557293499
684 619 0.068729249664059702
470 619 0.056270750335940298
121 619 0.045819499776039802
914 619 0.056270750335940298
311 619 0.022909749888019901
509 619 0.022909749888019901
619 619 0.63330566621874596
599 619 0.037513833557293499
22 619 0.018756916778646798
958 599 0.037513833557293499
978 599 0.068729249664059799
133 599 0.056270750335940298
617 599 0.045819499776039802
495 599 0.056270750335940298
332 599 0.022909749888019901
490 599 0.022909749888019901
619 599 0.068729249664059799
599 599 0.60209025011198003
22 599 0.018756916778646798
727 337 0.037513833557293499
877 337 0.068729249664059702
449 337 0.037513833557293499
137 337 0.0916389995520797
249 337 0.037513833557293499
782 337 0.018756916778646798
447 337 0.018756916778646798
337 337 0.61039591633072598
962 337 0.056270750335940298
344 337 0.022909749888019901
960 962 0.037513833557293499
788 962 0.068729249664059799
711 962 0.037513833557293499
199 962 0.0916389995520797
740 962 0.037513833557293499
883 962 0.018756916778646798
829 962 0.018756916778646798
337 962 0.045819499776039802
962 962 0.62084716689062702
344 962 0.022909749888019901
346 926 0.056270750335940298
889 926 0.045819499776039802
470 926 0.045819499776039802
992 926 0.075027667114586999
914 926 0.045819499776039802
851 926 0.022909749888019901
385 926 0.022909749888019901
926 926 0.62915283310937298
524 926 0.037513833557293499
717 926 0.018756916778646798
824 524 0.056270750335940298
979 524 0.045819499776039802
133 524 0.045819499776039802
601 524 0.075027667114586999
495 524 0.045819499776039802
550 524 0.022909749888019901
318 524 0.022909749888019901
926 524 0.068729249664059702
524 524 0.59793741700260705
717 524 0.018756916778646798
1003 644 0.056270750335940298
838 644 0.045819499776039802
449 644 0.068729249664059799
713 644 0.037513833557293499
249 644 0.068729249664059799
828 644 0.018756916778646798
844 644 0.018756916778646798
644 644 0.60624308322135301
226 644 0.056270750335940298
131 644 0.022909749888019901
408 226 0.056270750335940298
595 226 0.045819499776039802
711 226 0.068729249664059702
218 226 0.037513833557293499
740 226 0.068729249664059702
519 226 0.018756916778646798
134 226 0.018756916778646798
644 226 0.045819499776039802
226 226 0.61669433378125404
131 226 0.022909749888019901
360 446 0.056270750335940298
565 446 0.045819499776039802
517 446 0.022909749888019901
245 446 0.075027667114586999
815 446 0.022909749888019901
201 446 0.022909749888019901
916 446 0.022909749888019901
605 446 0.022909749888019901
26 446 0.022909749888019901
446 446 0.52706258299739295
306 446 0.037513833557293499
706 446 0.037513833557293499
717 446 0.045819499776039802
441 446 0.018756916778646798
830 446 0.018756916778646798
107 306 0.056270750335940298
741 306 0.045819499776039802
333 306 0.045819499776039802
498 306 0.037513833557293499
771 306 0.045819499776039802
35 306 0.018756916778646798
464 306 0.022909749888019901
567 306 0.022909749888019901
568 306 0.018756916778646798
446 306 0.045819499776039802
306 306 0.54166666666666696
950 306 0.018756916778646798
717 306 0.022909749888019901
131 306 0.018756916778646798
19 306 0.018756916778646798
830 306 0.018756916778646798
686 706 0.056270750335940298
492 706 0.045819499776039802
32 706 0.045819499776039802
880 706 0.037513833557293499
353 706 0.045819499776039802
725 706 0.022909749888019901
821 706 0.018756916778646798
343 706 0.018756916778646798
730 706 0.022909749888019901
446 706 0.045819499776039802
706 706 0.54166666666666696
950 706 0.018756916778646798
717 706 0.022909749888019901
131 706 0.018756916778646798
441 706 0.018756916778646798
938 706 0.018756916778646798
946 950 0.056270750335940298
442 950 0.045819499776039802
224 950 0.068729249664059799
772 950 0.068729249664059799
852 950 0.018756916778646798
523 950 0.018756916778646798
574 950 0.018756916778646798
271 950 0.018756916778646798
306 950 0.068729249664059799
706 950 0.068729249664059799
950 950 0.472937417002607
131 950 0.037513833557293499
19 950 0.018756916778646798
938 950 0.018756916778646798
138 813 0.037513833557293499
164 813 0.068729249664059799
517 813 0.056270750335940298
815 813 0.056270750335940298
317 813 0.022909749888019901
841 813 0.022909749888019901
1008 813 0.022909749888019901
691 813 0.022909749888019901
813 813 0.48539591633072598
781 813 0.056270750335940298
12 813 0.056270750335940298
22 813 0.045819499776039802
228 813 0.022909749888019901
737 813 0.022909749888019901
910 781 0.037513833557293499
581 781 0.068729249664059702
333 781 0.037513833557293499
465 781 0.045819499776039802
771 781 0.037513833557293499
325 781 0.018756916778646798
407 781 0.022909749888019901
123 781 0.022909749888019901
897 781 0.018756916778646798
813 781 0.022909749888019901
781 781 0.54166666666666696
982 781 0.037513833557293499
22 781 0.022909749888019901
344 781 0.018756916778646798
743 781 0.022909749888019901
737 781 0.022909749888019901
579 12 0.037513833557293499
888 12 0.068729249664059702
32 12 0.037513833557293499
416 12 0.045819499776039802
353 12 0.037513833557293499
193 12 0.022909749888019901
952 12 0.018756916778646798
263 12 0.018756916778646798
557 12 0.022909749888019901
813 12 0.022909749888019901
12 12 0.54166666666666696
982 12 0.037513833557293499
22 12 0.022909749888019901
344 12 0.018756916778646798
228 12 0.022909749888019901
893 12 0.022909749888019901
406 982 0.037513833557293499
832 982 0.068729249664059702
224 982 0.018756916778646798
618 982 0.0916389995520797
772 982 0.018756916778646798
779 982 0.018756916778646798
321 982 0.018756916778646798
445 982 0.018756916778646798
637 982 0.018756916778646798
781 982 0.045819499776039802
12 982 0.045819499776039802
982 982 0.51460408366927302
344 982 0.037513833557293499
743 982 0.022909749888019901
893 982 0.022909749888019901
30 717 0.056270750335940298
149 717 0.045819499776039802
452 717 0.045819499776039802
670 717 0.075027667114586999
396 717 0.045819499776039802
101 717 0.022909749888019901
540 717 0.022909749888019901
926 717 0.068729249664059702
524 717 0.037513833557293499
446 717 0.0916389995520797
306 717 0.037513833557293499
706 717 0.037513833557293499
717 717 0.375
441 717 0.018756916778646798
830 717 0.018756916778646798
506 131 0.056270750335940298
886 131 0.045819499776039802
3 131 0.068729249664059799
577 131 0.037513833557293499
187 131 0.068729249664059799
631 131 0.018756916778646798
837 131 0.018756916778646798
644 131 0.045819499776039802
226 131 0.056270750335940298
306 131 0.068729249664059799
706 131 0.068729249664059799
950 131 0.037513833557293499
131 131 0.37084716689062702
19 131 0.018756916778646798
938 131 0.018756916778646798
428 22 0.037513833557293499
158 22 0.068729249664059799
452 22 0.056270750335940298
799 22 0.045819499776039802
396 22 0.056270750335940298
341 22 0.022909749888019901
600 22 0.022909749888019901
619 22 0.068729249664059799
599 22 0.037513833557293499
813 22 0.045819499776039802
781 22 0.056270750335940298
12 22 0.056270750335940298
22 22 0.37915283310937298
228 22 0.022909749888019901
737 22 0.022909749888019901
393 344 0.037513833557293499
734 344 0.068729249664059702
3 344 0.037513833557293499
285 344 0.0916389995520797
187 344 0.037513833557293499
976 344 0.018756916778646798
572 344 0.018756916778646798
337 344 0.045819499776039802
962 344 0.056270750335940298
781 344 0.045819499776039802
12 344 0.045819499776039802
982 344 0.075027667114586999
344 344 0.375
743 344 0.022909749888019901
893 344 0.022909749888019901
952 441 0.045819499776039802
821 441 0.037513833557293499
413 441 0.022909749888019901
851 441 0.056270750335940298
311 441 0.045819499776039802
343 441 0.037513833557293499
263 441 0.045819499776039802
509 441 0.045819499776039802
385 441 0.056270750335940298
573 441 0.022909749888019901
446 441 0.045819499776039802
706 441 0.037513833557293499
717 441 0.022909749888019901
441 441 0.42081949977604
19 441 0.037513833557293499
559 441 0.018756916778646798
321 19 0.068729249664059799
523 19 0.018756916778646798
388 19 0.018756916778646798
550 19 0.056270750335940298
332 19 0.045819499776039802
574 19 0.018756916778646798
445 19 0.068729249664059799
490 19 0.045819499776039802
318 19 0.056270750335940298
764 19 0.018756916778646798
306 19 0.068729249664059799
950 19 0.018756916778646798
131 19 0.018756916778646798
441 19 0.068729249664059799
19 19 0.38960408366927402
559 19 0.018756916778646798
841 228 0.022909749888019901
916 228 0.056270750335940298
423 228 0.022909749888019901
828 228 0.037513833557293499
782 228 0.068729249664059799
605 228 0.056270750335940298
1008 228 0.022909749888019901
447 228 0.068729249664059799
844 228 0.037513833557293499
128 228 0.022909749888019901
813 228 0.022909749888019901
12 228 0.056270750335940298
22 228 0.022909749888019901
228 228 0.402062582997393
743 228 0.056270750335940298
559 228 0.022909749888019901
407 743 0.045819499776039802
464 743 0.037513833557293499
563 743 0.018756916778646798
519 743 0.037513833557293499
883 743 0.068729249664059702
567 743 0.037513833557293499
123 743 0.045819499776039802
829 743 0.068729249664059702
134 743 0.037513833557293499
526 743 0.018756916778646798
781 743 0.045819499776039802
982 743 0.037513833557293499
344 743 0.018756916778646798
228 743 0.045819499776039802
743 743 0.41251383355729299
559 743 0.022909749888019901
478 633 0.056270750335940298
375 633 0.037513833557293499
104 633 0.022909749888019901
972 633 0.045819499776039802
292 633 0.022909749888019901
92 633 0.022909749888019901
633 633 0.65621541610676604
357 633 0.056270750335940298
634 633 0.037513833557293499
737 633 0.018756916778646798
830 633 0.022909749888019901
862 357 0.037513833557293499
679 357 0.037513833557293499
272 357 0.045819499776039802
40 357 0.045819499776039802
338 357 0.018756916778646798
758 357 0.022909749888019901
633 357 0.045819499776039802
357 357 0.66666666666666696
363 357 0.037513833557293499
893 357 0.018756916778646798
830 357 0.022909749888019901
24 634 0.056270750335940298
269 634 0.018756916778646798
410 634 0.022909749888019901
278 634 0.068729249664059799
920 634 0.018756916778646798
778 634 0.022909749888019901
633 634 0.068729249664059799
634 634 0.625
363 634 0.056270750335940298
737 634 0.018756916778646798
938 634 0.022909749888019901
356 363 0.037513833557293499
598 363 0.018756916778646798
59 363 0.045819499776039802
673 363 0.068729249664059702
418 363 0.018756916778646798
382 363 0.018756916778646798
357 363 0.068729249664059702
634 363 0.045819499776039802
363 363 0.63545125055990004
893 363 0.018756916778646798
938 363 0.022909749888019901
794 737 0.037513833557293499
189 737 0.068729249664059799
201 737 0.056270750335940298
317 737 0.022909749888019901
423 737 0.022909749888019901
691 737 0.022909749888019901
26 737 0.056270750335940298
128 737 0.022909749888019901
813 737 0.022909749888019901
781 737 0.056270750335940298
22 737 0.022909749888019901
633 737 0.068729249664059799
634 737 0.037513833557293499
737 737 0.402062582997393
893 737 0.056270750335940298
559 737 0.022909749888019901
969 893 0.037513833557293499
255 893 0.068729249664059702
725 893 0.037513833557293499
193 893 0.045819499776039802
413 893 0.018756916778646798
557 893 0.045819499776039802
730 893 0.037513833557293499
573 893 0.018756916778646798
12 893 0.045819499776039802
982 893 0.037513833557293499
344 893 0.018756916778646798
357 893 0.068729249664059702
363 893 0.037513833557293499
737 893 0.045819499776039802
893 893 0.41251383355729299
559 893 0.022909749888019901
41 830 0.056270750335940298
900 830 0.045819499776039802
35 830 0.037513833557293499
325 830 0.045819499776039802
563 830 0.022909749888019901
897 830 0.045819499776039802
568 830 0.037513833557293499
526 830 0.022909749888019901
446 830 0.045819499776039802
306 830 0.037513833557293499
717 830 0.022909749888019901
633 830 0.045819499776039802
357 830 0.056270750335940298
830 830 0.42081949977604
938 830 0.037513833557293499
559 830 0.018756916778646798
593 938 0.056270750335940298
345 938 0.045819499776039802
852 938 0.018756916778646798
779 938 0.068729249664059799
388 938 0.018756916778646798
637 938 0.068729249664059799
271 938 0.018756916778646798
764 938 0.018756916778646798
706 938 0.068729249664059799
950 938 0.018756916778646798
131 938 0.018756916778646798
634 938 0.045819499776039802
363 938 0.056270750335940298
830 938 0.068729249664059799
938 938 0.38960408366927402
559 938 0.018756916778646798
101 559 0.056270750335940298
631 559 0.037513833557293499
341 559 0.045819499776039802
976 559 0.068729249664059799
572 559 0.068729249664059799
837 559 0.037513833557293499
600 559 0.045819499776039802
540 559 0.056270750335940298
441 559 0.068729249664059799
19 559 0.037513833557293499
228 559 0.045819499776039802
743 559 0.056270750335940298
737 559 0.045819499776039802
893 559 0.056270750335940298
830 559 0.068729249664059799
938 559 0.037513833557293499
559 559 0.16666666666666699
